[TITLE]
floodnet SWMM cross-check export: scenario=t100 routing=DYNWAVE horizon=180 min
Network geometry (inverts, shapes, sizes, lengths) = REAL (MCGM). Manning n, node storage area = ESTIMATED.
SUBCATCHMENTS / SUBAREAS / INFILTRATION parameters are ESTIMATED placeholders (uniform per junction), NOT calibrated.

[OPTIONS]
FLOW_UNITS           CMS
INFILTRATION         HORTON
FLOW_ROUTING         DYNWAVE
LINK_OFFSETS         DEPTH
MIN_SLOPE            0.001
ALLOW_PONDING        YES
SKIP_STEADY_STATE    NO
START_DATE           01/01/2026
START_TIME           00:00:00
REPORT_START_DATE    01/01/2026
REPORT_START_TIME    00:00:00
END_DATE             01/01/2026
END_TIME             03:00:00
SWEEP_START          01/01
SWEEP_END            12/31
DRY_DAYS             0
REPORT_STEP          00:05:00
WET_STEP             00:05:00
DRY_STEP             00:05:00
ROUTING_STEP         5
RULE_STEP            00:00:00
INERTIAL_DAMPING     PARTIAL
NORMAL_FLOW_LIMITED  BOTH
FORCE_MAIN_EQUATION  H-W
VARIABLE_STEP        0.75
LENGTHENING_STEP     0
MIN_SURFAREA         1.167
MAX_TRIALS           8
HEAD_TOLERANCE       0.0015
SYS_FLOW_TOL         5
LAT_FLOW_TOL         5
MINIMUM_STEP         0.5
THREADS              1

[EVAPORATION]
CONSTANT 0.0
DRY_ONLY NO

[RAINGAGES]
;;Name  Format    Interval SCF  Source
RG1     INTENSITY 0:05     1.0  TIMESERIES rain

[SUBCATCHMENTS]
;;Name  Raingage Outlet Area(ha) %Imperv Width %Slope CurbLen
S_N0 RG1 N0 1.00000 85 100.00 0.5 0
S_N1 RG1 N1 1.00000 85 100.00 0.5 0
S_N2 RG1 N2 1.00000 85 100.00 0.5 0
S_N3 RG1 N3 1.00000 85 100.00 0.5 0
S_N4 RG1 N4 1.00000 85 100.00 0.5 0
S_B0 RG1 B0 1.00000 85 100.00 0.5 0

[SUBAREAS]
;;Subcatchment N-Imperv N-Perv S-Imperv S-Perv PctZero RouteTo
S_N0 0.013 0.1 0.05 0.05 25 OUTLET
S_N1 0.013 0.1 0.05 0.05 25 OUTLET
S_N2 0.013 0.1 0.05 0.05 25 OUTLET
S_N3 0.013 0.1 0.05 0.05 25 OUTLET
S_N4 0.013 0.1 0.05 0.05 25 OUTLET
S_B0 0.013 0.1 0.05 0.05 25 OUTLET

[INFILTRATION]
;;Subcatchment MaxRate MinRate Decay DryTime MaxInfil
S_N0 76.2 3.3 4.14 7 0
S_N1 76.2 3.3 4.14 7 0
S_N2 76.2 3.3 4.14 7 0
S_N3 76.2 3.3 4.14 7 0
S_N4 76.2 3.3 4.14 7 0
S_B0 76.2 3.3 4.14 7 0

[JUNCTIONS]
;;Name Elevation MaxDepth InitDepth SurDepth Aponded
N0 10.000 2.000 0 0 1.20
N1 9.750 2.000 0 0 1.20
N2 9.500 2.000 0 0 1.20
N3 9.250 2.000 0 0 1.20
N4 9.000 2.000 0 0 1.20
B0 9.750 2.000 0 0 1.20

[OUTFALLS]
;;Name Elevation Type
OUT 8.750 FREE NO

[CONDUITS]
;;Name From To Length Roughness InOffset OutOffset InitFlow MaxFlow
E0 N0 N1 50.00 0.0130 0.000 0.000 0 0
E1 N1 N2 50.00 0.0130 0.000 0.000 0 0
E2 N2 N3 50.00 0.0130 0.000 0.000 0 0
E3 N3 N4 50.00 0.0130 0.000 0.000 0 0
E4 N4 OUT 50.00 0.0130 0.000 0.000 0 0
E5 B0 N2 50.00 0.0130 0.000 0.000 0 0

[XSECTIONS]
;;Link Shape Geom1 Geom2 Geom3 Geom4 Barrels
E0 CIRCULAR 0.300 0 0 0 1
E1 CIRCULAR 0.300 0 0 0 1
E2 CIRCULAR 0.300 0 0 0 1
E3 CIRCULAR 0.300 0 0 0 1
E4 CIRCULAR 0.300 0 0 0 1
E5 CIRCULAR 0.300 0 0 0 1

[TIMESERIES]
;;Name Date Time Value(mm/h)
rain 00:00 100.000
rain 00:05 100.000
rain 00:10 100.000
rain 00:15 100.000
rain 00:20 100.000
rain 00:25 100.000
rain 00:30 100.000
rain 00:35 100.000
rain 00:40 100.000
rain 00:45 100.000
rain 00:50 100.000
rain 00:55 100.000
rain 01:00 0.000
rain 01:05 0.000
rain 01:10 0.000
rain 01:15 0.000
rain 01:20 0.000
rain 01:25 0.000
rain 01:30 0.000
rain 01:35 0.000
rain 01:40 0.000
rain 01:45 0.000
rain 01:50 0.000
rain 01:55 0.000
rain 02:00 0.000
rain 02:05 0.000
rain 02:10 0.000
rain 02:15 0.000
rain 02:20 0.000
rain 02:25 0.000
rain 02:30 0.000
rain 02:35 0.000
rain 02:40 0.000
rain 02:45 0.000
rain 02:50 0.000
rain 02:55 0.000
rain 03:00 0.000

[REPORT]
INPUT NO
CONTROLS NO
SUBCATCHMENTS NONE
NODES NONE
LINKS NONE

[COORDINATES]
N0 15.00 205.00
N1 65.00 205.00
N2 115.00 205.00
N3 165.00 205.00
N4 215.00 205.00
OUT 265.00 205.00
B0 115.00 255.00

