[TITLE]
floodnet SWMM cross-check export: scenario=heavy routing=DYNWAVE horizon=180 min
Network geometry (inverts, shapes, sizes, lengths) = REAL (MCGM). Manning n, node storage area = ESTIMATED.
SUBCATCHMENTS / SUBAREAS / INFILTRATION parameters are ESTIMATED placeholders (uniform per junction), NOT calibrated.
SAME-INFLOW MODE: [INFLOWS] Q = 0.85 * i * A per junction, IGNORE_RAINFALL YES

[OPTIONS]
FLOW_UNITS           CMS
INFILTRATION         HORTON
FLOW_ROUTING         DYNWAVE
LINK_OFFSETS         DEPTH
MIN_SLOPE            0.001
ALLOW_PONDING        NO
SKIP_STEADY_STATE    NO
IGNORE_RAINFALL      YES
START_DATE           01/01/2026
START_TIME           00:00:00
REPORT_START_DATE    01/01/2026
REPORT_START_TIME    00:00:00
END_DATE             01/01/2026
END_TIME             03:00:00
SWEEP_START          01/01
SWEEP_END            12/31
DRY_DAYS             0
REPORT_STEP          00:05:00
WET_STEP             00:05:00
DRY_STEP             00:05:00
ROUTING_STEP         5
RULE_STEP            00:00:00
INERTIAL_DAMPING     PARTIAL
NORMAL_FLOW_LIMITED  BOTH
FORCE_MAIN_EQUATION  H-W
VARIABLE_STEP        0.75
LENGTHENING_STEP     0
MIN_SURFAREA         1.167
MAX_TRIALS           8
HEAD_TOLERANCE       0.0015
SYS_FLOW_TOL         5
LAT_FLOW_TOL         5
MINIMUM_STEP         0.5
THREADS              1

[EVAPORATION]
CONSTANT 0.0
DRY_ONLY NO

[RAINGAGES]
;;Name  Format    Interval SCF  Source
RG1     INTENSITY 0:05     1.0  TIMESERIES rain

[SUBCATCHMENTS]
;;Name  Raingage Outlet Area(ha) %Imperv Width %Slope CurbLen
S_2171039212 RG1 2171039212 0.54388 85 73.75 0.5 0
S_2171039213 RG1 2171039213 0.54388 85 73.75 0.5 0
S_2171039214 RG1 2171039214 0.54388 85 73.75 0.5 0
S_2171039215 RG1 2171039215 0.54388 85 73.75 0.5 0
S_2171039216 RG1 2171039216 0.54388 85 73.75 0.5 0
S_2171039217 RG1 2171039217 0.54388 85 73.75 0.5 0
S_2171039218 RG1 2171039218 0.54388 85 73.75 0.5 0
S_2171039301 RG1 2171039301 0.54388 85 73.75 0.5 0
S_2171049801 RG1 2171049801 0.54388 85 73.75 0.5 0
S_2171049802 RG1 2171049802 0.54388 85 73.75 0.5 0
S_2171049803 RG1 2171049803 0.54388 85 73.75 0.5 0
S_2171049804 RG1 2171049804 0.54388 85 73.75 0.5 0
S_2172030101 RG1 2172030101 0.54388 85 73.75 0.5 0
S_2172030103 RG1 2172030103 0.54388 85 73.75 0.5 0
S_2172030104 RG1 2172030104 0.54388 85 73.75 0.5 0
S_2172030105 RG1 2172030105 0.54388 85 73.75 0.5 0
S_2172030106 RG1 2172030106 0.54388 85 73.75 0.5 0
S_2172030107 RG1 2172030107 0.54388 85 73.75 0.5 0
S_2172030109 RG1 2172030109 0.54388 85 73.75 0.5 0
S_2172030201 RG1 2172030201 0.54388 85 73.75 0.5 0
S_2172030301 RG1 2172030301 0.54388 85 73.75 0.5 0
S_2172030302 RG1 2172030302 0.54388 85 73.75 0.5 0
S_2172030303 RG1 2172030303 0.54388 85 73.75 0.5 0
S_2172030304 RG1 2172030304 0.54388 85 73.75 0.5 0
S_2172030305 RG1 2172030305 0.54388 85 73.75 0.5 0
S_2172030306 RG1 2172030306 0.54388 85 73.75 0.5 0
S_2172030402 RG1 2172030402 0.54388 85 73.75 0.5 0
S_2172030403 RG1 2172030403 0.54388 85 73.75 0.5 0
S_2172030505 RG1 2172030505 0.54388 85 73.75 0.5 0
S_2172030506 RG1 2172030506 0.54388 85 73.75 0.5 0
S_2172030601 RG1 2172030601 0.54388 85 73.75 0.5 0
S_2172030903 RG1 2172030903 0.54388 85 73.75 0.5 0
S_2172031301 RG1 2172031301 0.54388 85 73.75 0.5 0
S_2172031302 RG1 2172031302 0.54388 85 73.75 0.5 0
S_2172031401 RG1 2172031401 0.54388 85 73.75 0.5 0
S_2172031402 RG1 2172031402 0.54388 85 73.75 0.5 0
S_2172031403 RG1 2172031403 0.54388 85 73.75 0.5 0
S_2172031404 RG1 2172031404 0.54388 85 73.75 0.5 0
S_2172031405 RG1 2172031405 0.54388 85 73.75 0.5 0
S_2172031406 RG1 2172031406 0.54388 85 73.75 0.5 0
S_2172031407 RG1 2172031407 0.54388 85 73.75 0.5 0
S_2172031408 RG1 2172031408 0.54388 85 73.75 0.5 0
S_2172031409 RG1 2172031409 0.54388 85 73.75 0.5 0
S_2172031503 RG1 2172031503 0.54388 85 73.75 0.5 0
S_2172031505 RG1 2172031505 0.54388 85 73.75 0.5 0
S_2172031506 RG1 2172031506 0.54388 85 73.75 0.5 0
S_2172031601 RG1 2172031601 0.54388 85 73.75 0.5 0
S_2172031602 RG1 2172031602 0.54388 85 73.75 0.5 0
S_2172031604 RG1 2172031604 0.54388 85 73.75 0.5 0
S_2172031605 RG1 2172031605 0.54388 85 73.75 0.5 0
S_2172031801 RG1 2172031801 0.54388 85 73.75 0.5 0
S_2172031802 RG1 2172031802 0.54388 85 73.75 0.5 0
S_2172031901 RG1 2172031901 0.54388 85 73.75 0.5 0
S_2172031902 RG1 2172031902 0.54388 85 73.75 0.5 0
S_2172032301 RG1 2172032301 0.54388 85 73.75 0.5 0
S_2172032302 RG1 2172032302 0.54388 85 73.75 0.5 0
S_2172032303 RG1 2172032303 0.54388 85 73.75 0.5 0
S_2172032501 RG1 2172032501 0.54388 85 73.75 0.5 0
S_2172032502 RG1 2172032502 0.54388 85 73.75 0.5 0
S_2172032503 RG1 2172032503 0.54388 85 73.75 0.5 0
S_2172032504 RG1 2172032504 0.54388 85 73.75 0.5 0
S_2172032601 RG1 2172032601 0.54388 85 73.75 0.5 0
S_2172032602 RG1 2172032602 0.54388 85 73.75 0.5 0
S_2172032603 RG1 2172032603 0.54388 85 73.75 0.5 0
S_2172032604 RG1 2172032604 0.54388 85 73.75 0.5 0
S_2172032605 RG1 2172032605 0.54388 85 73.75 0.5 0
S_2172032606 RG1 2172032606 0.54388 85 73.75 0.5 0
S_2172032701 RG1 2172032701 0.54388 85 73.75 0.5 0
S_2172032702 RG1 2172032702 0.54388 85 73.75 0.5 0
S_2172032703 RG1 2172032703 0.54388 85 73.75 0.5 0
S_2172032704 RG1 2172032704 0.54388 85 73.75 0.5 0
S_2172032705 RG1 2172032705 0.54388 85 73.75 0.5 0
S_2172032706 RG1 2172032706 0.54388 85 73.75 0.5 0
S_2172032707 RG1 2172032707 0.54388 85 73.75 0.5 0
S_2172032708 RG1 2172032708 0.54388 85 73.75 0.5 0
S_2172032709 RG1 2172032709 0.54388 85 73.75 0.5 0
S_2172032710 RG1 2172032710 0.54388 85 73.75 0.5 0
S_2172032803 RG1 2172032803 0.54388 85 73.75 0.5 0
S_2172033601 RG1 2172033601 0.54388 85 73.75 0.5 0
S_2172033602 RG1 2172033602 0.54388 85 73.75 0.5 0
S_2172033603 RG1 2172033603 0.54388 85 73.75 0.5 0
S_2172033604 RG1 2172033604 0.54388 85 73.75 0.5 0
S_2172033701 RG1 2172033701 0.54388 85 73.75 0.5 0
S_2172033702 RG1 2172033702 0.54388 85 73.75 0.5 0
S_2172033703 RG1 2172033703 0.54388 85 73.75 0.5 0
S_2172033704 RG1 2172033704 0.54388 85 73.75 0.5 0
S_2172033705 RG1 2172033705 0.54388 85 73.75 0.5 0
S_2172033801 RG1 2172033801 0.54388 85 73.75 0.5 0
S_2172034701 RG1 2172034701 0.54388 85 73.75 0.5 0
S_2172034702 RG1 2172034702 0.54388 85 73.75 0.5 0
S_2172034801 RG1 2172034801 0.54388 85 73.75 0.5 0
S_2172034802 RG1 2172034802 0.54388 85 73.75 0.5 0
S_2172034803 RG1 2172034803 0.54388 85 73.75 0.5 0
S_2172034804 RG1 2172034804 0.54388 85 73.75 0.5 0
S_2172034805 RG1 2172034805 0.54388 85 73.75 0.5 0
S_2172034806 RG1 2172034806 0.54388 85 73.75 0.5 0
S_2172035701 RG1 2172035701 0.54388 85 73.75 0.5 0
S_2172035901 RG1 2172035901 0.54388 85 73.75 0.5 0
S_2172035902 RG1 2172035902 0.54388 85 73.75 0.5 0
S_2172035903 RG1 2172035903 0.54388 85 73.75 0.5 0
S_2172035904 RG1 2172035904 0.54388 85 73.75 0.5 0
S_2172035905 RG1 2172035905 0.54388 85 73.75 0.5 0
S_2172035906 RG1 2172035906 0.54388 85 73.75 0.5 0
S_2172036601 RG1 2172036601 0.54388 85 73.75 0.5 0
S_2172036602 RG1 2172036602 0.54388 85 73.75 0.5 0
S_2172036603 RG1 2172036603 0.54388 85 73.75 0.5 0
S_2172037001 RG1 2172037001 0.54388 85 73.75 0.5 0
S_2172037202 RG1 2172037202 0.54388 85 73.75 0.5 0
S_2172037204 RG1 2172037204 0.54388 85 73.75 0.5 0
S_2172037501 RG1 2172037501 0.54388 85 73.75 0.5 0
S_2172037502 RG1 2172037502 0.54388 85 73.75 0.5 0
S_2172037503 RG1 2172037503 0.54388 85 73.75 0.5 0
S_2172037701 RG1 2172037701 0.54388 85 73.75 0.5 0
S_2172038101 RG1 2172038101 0.54388 85 73.75 0.5 0
S_2172038102 RG1 2172038102 0.54388 85 73.75 0.5 0
S_2172038103 RG1 2172038103 0.54388 85 73.75 0.5 0
S_2172038104 RG1 2172038104 0.54388 85 73.75 0.5 0
S_2172038201 RG1 2172038201 0.54388 85 73.75 0.5 0
S_2172038202 RG1 2172038202 0.54388 85 73.75 0.5 0
S_2172038203 RG1 2172038203 0.54388 85 73.75 0.5 0
S_2172038302 RG1 2172038302 0.54388 85 73.75 0.5 0
S_2172038303 RG1 2172038303 0.54388 85 73.75 0.5 0
S_2172038306 RG1 2172038306 0.54388 85 73.75 0.5 0
S_2172038308 RG1 2172038308 0.54388 85 73.75 0.5 0
S_2172038403 RG1 2172038403 0.54388 85 73.75 0.5 0
S_2172038404 RG1 2172038404 0.54388 85 73.75 0.5 0
S_2172038406 RG1 2172038406 0.54388 85 73.75 0.5 0
S_2172038407 RG1 2172038407 0.54388 85 73.75 0.5 0
S_2172038501 RG1 2172038501 0.54388 85 73.75 0.5 0
S_2172038502 RG1 2172038502 0.54388 85 73.75 0.5 0
S_2172038503 RG1 2172038503 0.54388 85 73.75 0.5 0
S_2172038505 RG1 2172038505 0.54388 85 73.75 0.5 0
S_2172038506 RG1 2172038506 0.54388 85 73.75 0.5 0
S_2172038509 RG1 2172038509 0.54388 85 73.75 0.5 0
S_2172038512 RG1 2172038512 0.54388 85 73.75 0.5 0
S_2172038513 RG1 2172038513 0.54388 85 73.75 0.5 0
S_2172038514 RG1 2172038514 0.54388 85 73.75 0.5 0
S_2172038602 RG1 2172038602 0.54388 85 73.75 0.5 0
S_2172038701 RG1 2172038701 0.54388 85 73.75 0.5 0
S_2172038702 RG1 2172038702 0.54388 85 73.75 0.5 0
S_2172038703 RG1 2172038703 0.54388 85 73.75 0.5 0
S_2172038704 RG1 2172038704 0.54388 85 73.75 0.5 0
S_2172039101 RG1 2172039101 0.54388 85 73.75 0.5 0
S_2172039102 RG1 2172039102 0.54388 85 73.75 0.5 0
S_2172039104 RG1 2172039104 0.54388 85 73.75 0.5 0
S_2172039202 RG1 2172039202 0.54388 85 73.75 0.5 0
S_2172039203 RG1 2172039203 0.54388 85 73.75 0.5 0
S_2172039204 RG1 2172039204 0.54388 85 73.75 0.5 0
S_2172039205 RG1 2172039205 0.54388 85 73.75 0.5 0
S_2172039206 RG1 2172039206 0.54388 85 73.75 0.5 0
S_2172039302 RG1 2172039302 0.54388 85 73.75 0.5 0
S_2172039303 RG1 2172039303 0.54388 85 73.75 0.5 0
S_2172039304 RG1 2172039304 0.54388 85 73.75 0.5 0
S_2172039305 RG1 2172039305 0.54388 85 73.75 0.5 0
S_2172039306 RG1 2172039306 0.54388 85 73.75 0.5 0
S_2172039307 RG1 2172039307 0.54388 85 73.75 0.5 0
S_2172039308 RG1 2172039308 0.54388 85 73.75 0.5 0
S_2172039309 RG1 2172039309 0.54388 85 73.75 0.5 0
S_2172039310 RG1 2172039310 0.54388 85 73.75 0.5 0
S_2172039311 RG1 2172039311 0.54388 85 73.75 0.5 0
S_2172039401 RG1 2172039401 0.54388 85 73.75 0.5 0
S_2172039402 RG1 2172039402 0.54388 85 73.75 0.5 0
S_2172039403 RG1 2172039403 0.54388 85 73.75 0.5 0
S_2172039404 RG1 2172039404 0.54388 85 73.75 0.5 0
S_2172039405 RG1 2172039405 0.54388 85 73.75 0.5 0
S_2172039407 RG1 2172039407 0.54388 85 73.75 0.5 0
S_2172039501 RG1 2172039501 0.54388 85 73.75 0.5 0
S_2172039502 RG1 2172039502 0.54388 85 73.75 0.5 0
S_2172039503 RG1 2172039503 0.54388 85 73.75 0.5 0
S_2172039504 RG1 2172039504 0.54388 85 73.75 0.5 0
S_2172039506 RG1 2172039506 0.54388 85 73.75 0.5 0
S_2172039507 RG1 2172039507 0.54388 85 73.75 0.5 0
S_2172039508 RG1 2172039508 0.54388 85 73.75 0.5 0
S_2172039703 RG1 2172039703 0.54388 85 73.75 0.5 0
S_2172039704 RG1 2172039704 0.54388 85 73.75 0.5 0
S_2172039705 RG1 2172039705 0.54388 85 73.75 0.5 0
S_2172039706 RG1 2172039706 0.54388 85 73.75 0.5 0
S_2172040701 RG1 2172040701 0.54388 85 73.75 0.5 0
S_2172040702 RG1 2172040702 0.54388 85 73.75 0.5 0
S_2172040802 RG1 2172040802 0.54388 85 73.75 0.5 0
S_2172041709 RG1 2172041709 0.54388 85 73.75 0.5 0
S_2172041802 RG1 2172041802 0.54388 85 73.75 0.5 0
S_2172041902 RG1 2172041902 0.54388 85 73.75 0.5 0
S_2172041903 RG1 2172041903 0.54388 85 73.75 0.5 0
S_2172041905 RG1 2172041905 0.54388 85 73.75 0.5 0
S_2172041907 RG1 2172041907 0.54388 85 73.75 0.5 0
S_2172042301_ RG1 2172042301_ 0.54388 85 73.75 0.5 0
S_2172042302_ RG1 2172042302_ 0.54388 85 73.75 0.5 0
S_2172042401_ RG1 2172042401_ 0.54388 85 73.75 0.5 0
S_2172042402 RG1 2172042402 0.54388 85 73.75 0.5 0
S_2172042403 RG1 2172042403 0.54388 85 73.75 0.5 0
S_2172042604 RG1 2172042604 0.54388 85 73.75 0.5 0
S_2172042605 RG1 2172042605 0.54388 85 73.75 0.5 0
S_2172042701 RG1 2172042701 0.54388 85 73.75 0.5 0
S_2172042702 RG1 2172042702 0.54388 85 73.75 0.5 0
S_2172042802 RG1 2172042802 0.54388 85 73.75 0.5 0
S_2172042901 RG1 2172042901 0.54388 85 73.75 0.5 0
S_2172042902 RG1 2172042902 0.54388 85 73.75 0.5 0
S_2172043301 RG1 2172043301 0.54388 85 73.75 0.5 0
S_2172043401 RG1 2172043401 0.54388 85 73.75 0.5 0
S_2172043401_ RG1 2172043401_ 0.54388 85 73.75 0.5 0
S_2172043501 RG1 2172043501 0.54388 85 73.75 0.5 0
S_2172043502 RG1 2172043502 0.54388 85 73.75 0.5 0
S_2172043503 RG1 2172043503 0.54388 85 73.75 0.5 0
S_2172043504 RG1 2172043504 0.54388 85 73.75 0.5 0
S_2172043505 RG1 2172043505 0.54388 85 73.75 0.5 0
S_2172043506 RG1 2172043506 0.54388 85 73.75 0.5 0
S_2172043507 RG1 2172043507 0.54388 85 73.75 0.5 0
S_2172043508 RG1 2172043508 0.54388 85 73.75 0.5 0
S_2172043602 RG1 2172043602 0.54388 85 73.75 0.5 0
S_2172043603 RG1 2172043603 0.54388 85 73.75 0.5 0
S_2172043604 RG1 2172043604 0.54388 85 73.75 0.5 0
S_2172043605 RG1 2172043605 0.54388 85 73.75 0.5 0
S_2172043606 RG1 2172043606 0.54388 85 73.75 0.5 0
S_2172043607 RG1 2172043607 0.54388 85 73.75 0.5 0
S_2172043701 RG1 2172043701 0.54388 85 73.75 0.5 0
S_2172043702 RG1 2172043702 0.54388 85 73.75 0.5 0
S_2172043703 RG1 2172043703 0.54388 85 73.75 0.5 0
S_2172043704 RG1 2172043704 0.54388 85 73.75 0.5 0
S_2172043705 RG1 2172043705 0.54388 85 73.75 0.5 0
S_2172043706 RG1 2172043706 0.54388 85 73.75 0.5 0
S_2172043801 RG1 2172043801 0.54388 85 73.75 0.5 0
S_2172043802 RG1 2172043802 0.54388 85 73.75 0.5 0
S_2172043803 RG1 2172043803 0.54388 85 73.75 0.5 0
S_2172043804 RG1 2172043804 0.54388 85 73.75 0.5 0
S_2172043904 RG1 2172043904 0.54388 85 73.75 0.5 0
S_2172043905 RG1 2172043905 0.54388 85 73.75 0.5 0
S_2172043906 RG1 2172043906 0.54388 85 73.75 0.5 0
S_2172043907 RG1 2172043907 0.54388 85 73.75 0.5 0
S_2172044002 RG1 2172044002 0.54388 85 73.75 0.5 0
S_2172044103 RG1 2172044103 0.54388 85 73.75 0.5 0
S_2172044401 RG1 2172044401 0.54388 85 73.75 0.5 0
S_2172044402 RG1 2172044402 0.54388 85 73.75 0.5 0
S_2172044403 RG1 2172044403 0.54388 85 73.75 0.5 0
S_2172044601 RG1 2172044601 0.54388 85 73.75 0.5 0
S_2172044602 RG1 2172044602 0.54388 85 73.75 0.5 0
S_2172044603 RG1 2172044603 0.54388 85 73.75 0.5 0
S_2172044604 RG1 2172044604 0.54388 85 73.75 0.5 0
S_2172044605 RG1 2172044605 0.54388 85 73.75 0.5 0
S_2172044606 RG1 2172044606 0.54388 85 73.75 0.5 0
S_2172044607 RG1 2172044607 0.54388 85 73.75 0.5 0
S_2172044701 RG1 2172044701 0.54388 85 73.75 0.5 0
S_2172044702 RG1 2172044702 0.54388 85 73.75 0.5 0
S_2172044703 RG1 2172044703 0.54388 85 73.75 0.5 0
S_2172044704 RG1 2172044704 0.54388 85 73.75 0.5 0
S_2172044705 RG1 2172044705 0.54388 85 73.75 0.5 0
S_2172044706 RG1 2172044706 0.54388 85 73.75 0.5 0
S_2172044707 RG1 2172044707 0.54388 85 73.75 0.5 0
S_2172044902 RG1 2172044902 0.54388 85 73.75 0.5 0
S_2172044903 RG1 2172044903 0.54388 85 73.75 0.5 0
S_2172044905 RG1 2172044905 0.54388 85 73.75 0.5 0
S_2172044909 RG1 2172044909 0.54388 85 73.75 0.5 0
S_2172044910 RG1 2172044910 0.54388 85 73.75 0.5 0
S_2172045001 RG1 2172045001 0.54388 85 73.75 0.5 0
S_2172045002 RG1 2172045002 0.54388 85 73.75 0.5 0
S_2172045003 RG1 2172045003 0.54388 85 73.75 0.5 0
S_2172045701 RG1 2172045701 0.54388 85 73.75 0.5 0
S_2172045702 RG1 2172045702 0.54388 85 73.75 0.5 0
S_2172045704 RG1 2172045704 0.54388 85 73.75 0.5 0
S_2172045801 RG1 2172045801 0.54388 85 73.75 0.5 0
S_2172045802 RG1 2172045802 0.54388 85 73.75 0.5 0
S_2172045803 RG1 2172045803 0.54388 85 73.75 0.5 0
S_2172045804 RG1 2172045804 0.54388 85 73.75 0.5 0
S_2172045805 RG1 2172045805 0.54388 85 73.75 0.5 0
S_2172045806 RG1 2172045806 0.54388 85 73.75 0.5 0
S_2172045807 RG1 2172045807 0.54388 85 73.75 0.5 0
S_2172045808 RG1 2172045808 0.54388 85 73.75 0.5 0
S_2172045809 RG1 2172045809 0.54388 85 73.75 0.5 0
S_2172045810 RG1 2172045810 0.54388 85 73.75 0.5 0
S_2172045902 RG1 2172045902 0.54388 85 73.75 0.5 0
S_2172045904 RG1 2172045904 0.54388 85 73.75 0.5 0
S_2172045905 RG1 2172045905 0.54388 85 73.75 0.5 0
S_2172046001 RG1 2172046001 0.54388 85 73.75 0.5 0
S_2172046002 RG1 2172046002 0.54388 85 73.75 0.5 0
S_2172046003 RG1 2172046003 0.54388 85 73.75 0.5 0
S_2172046004 RG1 2172046004 0.54388 85 73.75 0.5 0
S_2172046005 RG1 2172046005 0.54388 85 73.75 0.5 0
S_2172046801_ RG1 2172046801_ 0.54388 85 73.75 0.5 0
S_2172046802_ RG1 2172046802_ 0.54388 85 73.75 0.5 0
S_2172046803_ RG1 2172046803_ 0.54388 85 73.75 0.5 0
S_2172046804 RG1 2172046804 0.54388 85 73.75 0.5 0
S_2172046805 RG1 2172046805 0.54388 85 73.75 0.5 0
S_2172046806 RG1 2172046806 0.54388 85 73.75 0.5 0
S_2172046901 RG1 2172046901 0.54388 85 73.75 0.5 0
S_2172046902 RG1 2172046902 0.54388 85 73.75 0.5 0
S_2172046903 RG1 2172046903 0.54388 85 73.75 0.5 0
S_2172046904 RG1 2172046904 0.54388 85 73.75 0.5 0
S_2172046905 RG1 2172046905 0.54388 85 73.75 0.5 0
S_2172047001 RG1 2172047001 0.54388 85 73.75 0.5 0
S_2172047101 RG1 2172047101 0.54388 85 73.75 0.5 0
S_2172047102 RG1 2172047102 0.54388 85 73.75 0.5 0
S_2172047103 RG1 2172047103 0.54388 85 73.75 0.5 0
S_2172047104 RG1 2172047104 0.54388 85 73.75 0.5 0
S_2172047202 RG1 2172047202 0.54388 85 73.75 0.5 0
S_2172047204 RG1 2172047204 0.54388 85 73.75 0.5 0
S_2172047403 RG1 2172047403 0.54388 85 73.75 0.5 0
S_2172048101 RG1 2172048101 0.54388 85 73.75 0.5 0
S_2172048201 RG1 2172048201 0.54388 85 73.75 0.5 0
S_2172048202 RG1 2172048202 0.54388 85 73.75 0.5 0
S_2172048203 RG1 2172048203 0.54388 85 73.75 0.5 0
S_2172048304 RG1 2172048304 0.54388 85 73.75 0.5 0
S_2172048305 RG1 2172048305 0.54388 85 73.75 0.5 0
S_2172048306 RG1 2172048306 0.54388 85 73.75 0.5 0
S_2172048307 RG1 2172048307 0.54388 85 73.75 0.5 0
S_2172048401 RG1 2172048401 0.54388 85 73.75 0.5 0
S_2172048403 RG1 2172048403 0.54388 85 73.75 0.5 0
S_2172048405 RG1 2172048405 0.54388 85 73.75 0.5 0
S_2172048407 RG1 2172048407 0.54388 85 73.75 0.5 0
S_2172048408 RG1 2172048408 0.54388 85 73.75 0.5 0
S_2172049003 RG1 2172049003 0.54388 85 73.75 0.5 0
S_2172049301 RG1 2172049301 0.54388 85 73.75 0.5 0
S_2172049302 RG1 2172049302 0.54388 85 73.75 0.5 0
S_2172049303 RG1 2172049303 0.54388 85 73.75 0.5 0
S_2172049304 RG1 2172049304 0.54388 85 73.75 0.5 0
S_2172049401 RG1 2172049401 0.54388 85 73.75 0.5 0
S_2172049402 RG1 2172049402 0.54388 85 73.75 0.5 0
S_2172049403 RG1 2172049403 0.54388 85 73.75 0.5 0
S_2172049502 RG1 2172049502 0.54388 85 73.75 0.5 0
S_2172051102 RG1 2172051102 0.54388 85 73.75 0.5 0
S_2172051103 RG1 2172051103 0.54388 85 73.75 0.5 0
S_2172052101 RG1 2172052101 0.54388 85 73.75 0.5 0
S_2172052102 RG1 2172052102 0.54388 85 73.75 0.5 0
S_2172052103 RG1 2172052103 0.54388 85 73.75 0.5 0
S_2172052105 RG1 2172052105 0.54388 85 73.75 0.5 0
S_2172052106 RG1 2172052106 0.54388 85 73.75 0.5 0
S_2172052107 RG1 2172052107 0.54388 85 73.75 0.5 0
S_2172052108 RG1 2172052108 0.54388 85 73.75 0.5 0
S_2172052109 RG1 2172052109 0.54388 85 73.75 0.5 0
S_2172052110 RG1 2172052110 0.54388 85 73.75 0.5 0
S_2172052111 RG1 2172052111 0.54388 85 73.75 0.5 0
S_2172052112 RG1 2172052112 0.54388 85 73.75 0.5 0
S_2172052114 RG1 2172052114 0.54388 85 73.75 0.5 0
S_2172052201 RG1 2172052201 0.54388 85 73.75 0.5 0
S_2172052202 RG1 2172052202 0.54388 85 73.75 0.5 0
S_2172053201 RG1 2172053201 0.54388 85 73.75 0.5 0
S_2172053203 RG1 2172053203 0.54388 85 73.75 0.5 0
S_2172053204 RG1 2172053204 0.54388 85 73.75 0.5 0
S_2172053503 RG1 2172053503 0.54388 85 73.75 0.5 0
S_2172053602 RG1 2172053602 0.54388 85 73.75 0.5 0
S_2172054407 RG1 2172054407 0.54388 85 73.75 0.5 0
S_2172054409 RG1 2172054409 0.54388 85 73.75 0.5 0
S_2172054410 RG1 2172054410 0.54388 85 73.75 0.5 0
S_2172054501 RG1 2172054501 0.54388 85 73.75 0.5 0
S_2172054502 RG1 2172054502 0.54388 85 73.75 0.5 0
S_2172054503 RG1 2172054503 0.54388 85 73.75 0.5 0
S_2172054504 RG1 2172054504 0.54388 85 73.75 0.5 0
S_2172054506 RG1 2172054506 0.54388 85 73.75 0.5 0
S_2172055101 RG1 2172055101 0.54388 85 73.75 0.5 0
S_2172055701_ RG1 2172055701_ 0.54388 85 73.75 0.5 0
S_2172056101 RG1 2172056101 0.54388 85 73.75 0.5 0
S_2172056102 RG1 2172056102 0.54388 85 73.75 0.5 0
S_2172056302 RG1 2172056302 0.54388 85 73.75 0.5 0
S_2172056305 RG1 2172056305 0.54388 85 73.75 0.5 0
S_2172056306 RG1 2172056306 0.54388 85 73.75 0.5 0
S_2172056403 RG1 2172056403 0.54388 85 73.75 0.5 0
S_2172056404 RG1 2172056404 0.54388 85 73.75 0.5 0
S_2172056405 RG1 2172056405 0.54388 85 73.75 0.5 0
S_2172056406 RG1 2172056406 0.54388 85 73.75 0.5 0
S_2172056501 RG1 2172056501 0.54388 85 73.75 0.5 0
S_2172056502 RG1 2172056502 0.54388 85 73.75 0.5 0
S_2172056503 RG1 2172056503 0.54388 85 73.75 0.5 0
S_2172056601 RG1 2172056601 0.54388 85 73.75 0.5 0
S_2172056601_ RG1 2172056601_ 0.54388 85 73.75 0.5 0
S_2172056602 RG1 2172056602 0.54388 85 73.75 0.5 0
S_2172056602_ RG1 2172056602_ 0.54388 85 73.75 0.5 0
S_2172056603 RG1 2172056603 0.54388 85 73.75 0.5 0
S_2172056603_ RG1 2172056603_ 0.54388 85 73.75 0.5 0
S_2172057001 RG1 2172057001 0.54388 85 73.75 0.5 0
S_2172057002 RG1 2172057002 0.54388 85 73.75 0.5 0
S_2172057003 RG1 2172057003 0.54388 85 73.75 0.5 0
S_2172057004 RG1 2172057004 0.54388 85 73.75 0.5 0
S_2172057005 RG1 2172057005 0.54388 85 73.75 0.5 0
S_2172057101 RG1 2172057101 0.54388 85 73.75 0.5 0
S_2172057105 RG1 2172057105 0.54388 85 73.75 0.5 0
S_2172057301 RG1 2172057301 0.54388 85 73.75 0.5 0
S_2172057302 RG1 2172057302 0.54388 85 73.75 0.5 0
S_2172057305 RG1 2172057305 0.54388 85 73.75 0.5 0
S_2172057306 RG1 2172057306 0.54388 85 73.75 0.5 0
S_2172057307 RG1 2172057307 0.54388 85 73.75 0.5 0
S_2172057309 RG1 2172057309 0.54388 85 73.75 0.5 0
S_2172057402 RG1 2172057402 0.54388 85 73.75 0.5 0
S_2172057403 RG1 2172057403 0.54388 85 73.75 0.5 0
S_2172057404 RG1 2172057404 0.54388 85 73.75 0.5 0
S_2172057406 RG1 2172057406 0.54388 85 73.75 0.5 0
S_2172057501 RG1 2172057501 0.54388 85 73.75 0.5 0
S_2172057502 RG1 2172057502 0.54388 85 73.75 0.5 0
S_2172057601 RG1 2172057601 0.54388 85 73.75 0.5 0
S_2172057602 RG1 2172057602 0.54388 85 73.75 0.5 0
S_2172057603 RG1 2172057603 0.54388 85 73.75 0.5 0
S_2172058102 RG1 2172058102 0.54388 85 73.75 0.5 0
S_2172058401 RG1 2172058401 0.54388 85 73.75 0.5 0
S_2172058402 RG1 2172058402 0.54388 85 73.75 0.5 0
S_2172058403 RG1 2172058403 0.54388 85 73.75 0.5 0
S_2172058501 RG1 2172058501 0.54388 85 73.75 0.5 0
S_2172058502 RG1 2172058502 0.54388 85 73.75 0.5 0
S_2172058503 RG1 2172058503 0.54388 85 73.75 0.5 0
S_2172058602 RG1 2172058602 0.54388 85 73.75 0.5 0
S_2172058603 RG1 2172058603 0.54388 85 73.75 0.5 0
S_2172058604 RG1 2172058604 0.54388 85 73.75 0.5 0
S_2172058605 RG1 2172058605 0.54388 85 73.75 0.5 0
S_2172058606 RG1 2172058606 0.54388 85 73.75 0.5 0
S_2172058607 RG1 2172058607 0.54388 85 73.75 0.5 0
S_2172058608 RG1 2172058608 0.54388 85 73.75 0.5 0
S_2172059301 RG1 2172059301 0.54388 85 73.75 0.5 0
S_2172059302 RG1 2172059302 0.54388 85 73.75 0.5 0
S_2172059303 RG1 2172059303 0.54388 85 73.75 0.5 0
S_2172059402 RG1 2172059402 0.54388 85 73.75 0.5 0
S_2172059404 RG1 2172059404 0.54388 85 73.75 0.5 0
S_2172059405 RG1 2172059405 0.54388 85 73.75 0.5 0
S_2172059406 RG1 2172059406 0.54388 85 73.75 0.5 0
S_2172059501 RG1 2172059501 0.54388 85 73.75 0.5 0
S_2172059502 RG1 2172059502 0.54388 85 73.75 0.5 0
S_2172059503 RG1 2172059503 0.54388 85 73.75 0.5 0
S_2172059504 RG1 2172059504 0.54388 85 73.75 0.5 0
S_2172059604 RG1 2172059604 0.54388 85 73.75 0.5 0
S_2172059703 RG1 2172059703 0.54388 85 73.75 0.5 0
S_2173030105 RG1 2173030105 0.54388 85 73.75 0.5 0
S_2173030301 RG1 2173030301 0.54388 85 73.75 0.5 0
S_2173030302 RG1 2173030302 0.54388 85 73.75 0.5 0
S_2173030303 RG1 2173030303 0.54388 85 73.75 0.5 0
S_2173030304 RG1 2173030304 0.54388 85 73.75 0.5 0
S_2173030403 RG1 2173030403 0.54388 85 73.75 0.5 0
S_2173030405 RG1 2173030405 0.54388 85 73.75 0.5 0
S_2173030501 RG1 2173030501 0.54388 85 73.75 0.5 0
S_2173030502 RG1 2173030502 0.54388 85 73.75 0.5 0
S_2173030503 RG1 2173030503 0.54388 85 73.75 0.5 0
S_2173030504 RG1 2173030504 0.54388 85 73.75 0.5 0
S_2173030505 RG1 2173030505 0.54388 85 73.75 0.5 0
S_2173030506 RG1 2173030506 0.54388 85 73.75 0.5 0
S_2173030507 RG1 2173030507 0.54388 85 73.75 0.5 0
S_2173030601 RG1 2173030601 0.54388 85 73.75 0.5 0
S_2173030602 RG1 2173030602 0.54388 85 73.75 0.5 0
S_2173030603 RG1 2173030603 0.54388 85 73.75 0.5 0
S_2173030604 RG1 2173030604 0.54388 85 73.75 0.5 0
S_2173030605 RG1 2173030605 0.54388 85 73.75 0.5 0
S_2173030606 RG1 2173030606 0.54388 85 73.75 0.5 0
S_2173030607 RG1 2173030607 0.54388 85 73.75 0.5 0
S_2173030608 RG1 2173030608 0.54388 85 73.75 0.5 0
S_2173030701 RG1 2173030701 0.54388 85 73.75 0.5 0
S_2173030702 RG1 2173030702 0.54388 85 73.75 0.5 0
S_2173030703 RG1 2173030703 0.54388 85 73.75 0.5 0
S_2173030704 RG1 2173030704 0.54388 85 73.75 0.5 0
S_2173030705 RG1 2173030705 0.54388 85 73.75 0.5 0
S_2173030706 RG1 2173030706 0.54388 85 73.75 0.5 0
S_2173030801 RG1 2173030801 0.54388 85 73.75 0.5 0
S_2173030901 RG1 2173030901 0.54388 85 73.75 0.5 0
S_2173030902 RG1 2173030902 0.54388 85 73.75 0.5 0
S_2173031302 RG1 2173031302 0.54388 85 73.75 0.5 0
S_2173031304 RG1 2173031304 0.54388 85 73.75 0.5 0
S_2173031305 RG1 2173031305 0.54388 85 73.75 0.5 0
S_2173031306 RG1 2173031306 0.54388 85 73.75 0.5 0
S_2173031307 RG1 2173031307 0.54388 85 73.75 0.5 0
S_2173031308 RG1 2173031308 0.54388 85 73.75 0.5 0
S_2173031401 RG1 2173031401 0.54388 85 73.75 0.5 0
S_2173031402 RG1 2173031402 0.54388 85 73.75 0.5 0
S_2173031403 RG1 2173031403 0.54388 85 73.75 0.5 0
S_2173031404 RG1 2173031404 0.54388 85 73.75 0.5 0
S_2173031501 RG1 2173031501 0.54388 85 73.75 0.5 0
S_2173031505 RG1 2173031505 0.54388 85 73.75 0.5 0
S_2173031601 RG1 2173031601 0.54388 85 73.75 0.5 0
S_2173031701 RG1 2173031701 0.54388 85 73.75 0.5 0
S_2173031702 RG1 2173031702 0.54388 85 73.75 0.5 0
S_2173031703 RG1 2173031703 0.54388 85 73.75 0.5 0
S_2173031704 RG1 2173031704 0.54388 85 73.75 0.5 0
S_2173031705 RG1 2173031705 0.54388 85 73.75 0.5 0
S_2173031706 RG1 2173031706 0.54388 85 73.75 0.5 0
S_2173031707 RG1 2173031707 0.54388 85 73.75 0.5 0
S_2173031708 RG1 2173031708 0.54388 85 73.75 0.5 0
S_2173031801 RG1 2173031801 0.54388 85 73.75 0.5 0
S_2173031802 RG1 2173031802 0.54388 85 73.75 0.5 0
S_2173031803 RG1 2173031803 0.54388 85 73.75 0.5 0
S_2173031804 RG1 2173031804 0.54388 85 73.75 0.5 0
S_2173031805 RG1 2173031805 0.54388 85 73.75 0.5 0
S_2173031806 RG1 2173031806 0.54388 85 73.75 0.5 0
S_2173031807 RG1 2173031807 0.54388 85 73.75 0.5 0
S_2173031901 RG1 2173031901 0.54388 85 73.75 0.5 0
S_2173031902 RG1 2173031902 0.54388 85 73.75 0.5 0
S_2173031903 RG1 2173031903 0.54388 85 73.75 0.5 0
S_2173032201 RG1 2173032201 0.54388 85 73.75 0.5 0
S_2173032202 RG1 2173032202 0.54388 85 73.75 0.5 0
S_2173032205 RG1 2173032205 0.54388 85 73.75 0.5 0
S_2173032206 RG1 2173032206 0.54388 85 73.75 0.5 0
S_2173032207 RG1 2173032207 0.54388 85 73.75 0.5 0
S_2173032401 RG1 2173032401 0.54388 85 73.75 0.5 0
S_2173032801_ RG1 2173032801_ 0.54388 85 73.75 0.5 0
S_2173033201 RG1 2173033201 0.54388 85 73.75 0.5 0
S_2173033202 RG1 2173033202 0.54388 85 73.75 0.5 0
S_2173033204 RG1 2173033204 0.54388 85 73.75 0.5 0
S_2173033207 RG1 2173033207 0.54388 85 73.75 0.5 0
S_2173033301 RG1 2173033301 0.54388 85 73.75 0.5 0
S_2173033302 RG1 2173033302 0.54388 85 73.75 0.5 0
S_2173033303 RG1 2173033303 0.54388 85 73.75 0.5 0
S_2173033402 RG1 2173033402 0.54388 85 73.75 0.5 0
S_2173033404 RG1 2173033404 0.54388 85 73.75 0.5 0
S_2173033501 RG1 2173033501 0.54388 85 73.75 0.5 0
S_2173033601 RG1 2173033601 0.54388 85 73.75 0.5 0
S_2173033602 RG1 2173033602 0.54388 85 73.75 0.5 0
S_2173033603 RG1 2173033603 0.54388 85 73.75 0.5 0
S_2173033604 RG1 2173033604 0.54388 85 73.75 0.5 0
S_2173033605 RG1 2173033605 0.54388 85 73.75 0.5 0
S_2173034201 RG1 2173034201 0.54388 85 73.75 0.5 0
S_2173034202 RG1 2173034202 0.54388 85 73.75 0.5 0
S_2173034203 RG1 2173034203 0.54388 85 73.75 0.5 0
S_2173034204 RG1 2173034204 0.54388 85 73.75 0.5 0
S_2173034205 RG1 2173034205 0.54388 85 73.75 0.5 0
S_2173034302 RG1 2173034302 0.54388 85 73.75 0.5 0
S_2173034303 RG1 2173034303 0.54388 85 73.75 0.5 0
S_2173034501 RG1 2173034501 0.54388 85 73.75 0.5 0
S_2173034502 RG1 2173034502 0.54388 85 73.75 0.5 0
S_2173034503 RG1 2173034503 0.54388 85 73.75 0.5 0
S_2173035301 RG1 2173035301 0.54388 85 73.75 0.5 0
S_2173035401 RG1 2173035401 0.54388 85 73.75 0.5 0
S_2173035401_ RG1 2173035401_ 0.54388 85 73.75 0.5 0
S_2173035402 RG1 2173035402 0.54388 85 73.75 0.5 0
S_2173035501 RG1 2173035501 0.54388 85 73.75 0.5 0
S_2173035502 RG1 2173035502 0.54388 85 73.75 0.5 0
S_2173036501 RG1 2173036501 0.54388 85 73.75 0.5 0
S_2173036502 RG1 2173036502 0.54388 85 73.75 0.5 0
S_2173036503 RG1 2173036503 0.54388 85 73.75 0.5 0
S_2173036601_ RG1 2173036601_ 0.54388 85 73.75 0.5 0
S_2173036602 RG1 2173036602 0.54388 85 73.75 0.5 0
S_2173036603 RG1 2173036603 0.54388 85 73.75 0.5 0
S_2173036604 RG1 2173036604 0.54388 85 73.75 0.5 0
S_2173036701 RG1 2173036701 0.54388 85 73.75 0.5 0
S_2173036702 RG1 2173036702 0.54388 85 73.75 0.5 0
S_2173036703 RG1 2173036703 0.54388 85 73.75 0.5 0
S_2173037801 RG1 2173037801 0.54388 85 73.75 0.5 0
S_2173037802 RG1 2173037802 0.54388 85 73.75 0.5 0
S_2173037901 RG1 2173037901 0.54388 85 73.75 0.5 0
S_2173038801 RG1 2173038801 0.54388 85 73.75 0.5 0
S_2173038901 RG1 2173038901 0.54388 85 73.75 0.5 0
S_2173038902 RG1 2173038902 0.54388 85 73.75 0.5 0
S_2173038903 RG1 2173038903 0.54388 85 73.75 0.5 0
S_2173038904 RG1 2173038904 0.54388 85 73.75 0.5 0
S_2173038905 RG1 2173038905 0.54388 85 73.75 0.5 0
S_2173039901 RG1 2173039901 0.54388 85 73.75 0.5 0
S_2173040001 RG1 2173040001 0.54388 85 73.75 0.5 0
S_2173040002 RG1 2173040002 0.54388 85 73.75 0.5 0
S_2173040101 RG1 2173040101 0.54388 85 73.75 0.5 0
S_2173040102 RG1 2173040102 0.54388 85 73.75 0.5 0
S_2173040501 RG1 2173040501 0.54388 85 73.75 0.5 0
S_2173041101 RG1 2173041101 0.54388 85 73.75 0.5 0
S_2173041102 RG1 2173041102 0.54388 85 73.75 0.5 0
S_2173041103 RG1 2173041103 0.54388 85 73.75 0.5 0
S_2173041104 RG1 2173041104 0.54388 85 73.75 0.5 0
S_2173041105 RG1 2173041105 0.54388 85 73.75 0.5 0
S_2173041201 RG1 2173041201 0.54388 85 73.75 0.5 0
S_2173041202 RG1 2173041202 0.54388 85 73.75 0.5 0
S_2173041401 RG1 2173041401 0.54388 85 73.75 0.5 0
S_2173041501 RG1 2173041501 0.54388 85 73.75 0.5 0
S_2173041502 RG1 2173041502 0.54388 85 73.75 0.5 0
S_2173041601 RG1 2173041601 0.54388 85 73.75 0.5 0
S_2173042001 RG1 2173042001 0.54388 85 73.75 0.5 0
S_2173042101 RG1 2173042101 0.54388 85 73.75 0.5 0
S_2173042302 RG1 2173042302 0.54388 85 73.75 0.5 0
S_2173042401 RG1 2173042401 0.54388 85 73.75 0.5 0
S_2173042403 RG1 2173042403 0.54388 85 73.75 0.5 0
S_2173042406 RG1 2173042406 0.54388 85 73.75 0.5 0
S_2173042601 RG1 2173042601 0.54388 85 73.75 0.5 0
S_2173042701 RG1 2173042701 0.54388 85 73.75 0.5 0
S_2173042801 RG1 2173042801 0.54388 85 73.75 0.5 0
S_2173042802 RG1 2173042802 0.54388 85 73.75 0.5 0
S_2173043003 RG1 2173043003 0.54388 85 73.75 0.5 0
S_2173043005 RG1 2173043005 0.54388 85 73.75 0.5 0
S_2173043203 RG1 2173043203 0.54388 85 73.75 0.5 0
S_2173043301 RG1 2173043301 0.54388 85 73.75 0.5 0
S_2173043302 RG1 2173043302 0.54388 85 73.75 0.5 0
S_2173043303 RG1 2173043303 0.54388 85 73.75 0.5 0
S_2173043304 RG1 2173043304 0.54388 85 73.75 0.5 0
S_2173043305 RG1 2173043305 0.54388 85 73.75 0.5 0
S_2173043401 RG1 2173043401 0.54388 85 73.75 0.5 0
S_2173043402 RG1 2173043402 0.54388 85 73.75 0.5 0
S_2173043403 RG1 2173043403 0.54388 85 73.75 0.5 0
S_2173043404 RG1 2173043404 0.54388 85 73.75 0.5 0
S_2173043405 RG1 2173043405 0.54388 85 73.75 0.5 0
S_2173043406 RG1 2173043406 0.54388 85 73.75 0.5 0
S_2173043504 RG1 2173043504 0.54388 85 73.75 0.5 0
S_2173043506 RG1 2173043506 0.54388 85 73.75 0.5 0
S_2173043601 RG1 2173043601 0.54388 85 73.75 0.5 0
S_2173043901 RG1 2173043901 0.54388 85 73.75 0.5 0
S_2173043902 RG1 2173043902 0.54388 85 73.75 0.5 0
S_2173044101 RG1 2173044101 0.54388 85 73.75 0.5 0
S_2173044102 RG1 2173044102 0.54388 85 73.75 0.5 0
S_2173044103 RG1 2173044103 0.54388 85 73.75 0.5 0
S_2173044106 RG1 2173044106 0.54388 85 73.75 0.5 0
S_2173044201 RG1 2173044201 0.54388 85 73.75 0.5 0
S_2173044202 RG1 2173044202 0.54388 85 73.75 0.5 0
S_2173044203 RG1 2173044203 0.54388 85 73.75 0.5 0
S_2173044204 RG1 2173044204 0.54388 85 73.75 0.5 0
S_2173044301 RG1 2173044301 0.54388 85 73.75 0.5 0
S_2173044302 RG1 2173044302 0.54388 85 73.75 0.5 0
S_2173044303 RG1 2173044303 0.54388 85 73.75 0.5 0
S_2173044304 RG1 2173044304 0.54388 85 73.75 0.5 0
S_2173044305 RG1 2173044305 0.54388 85 73.75 0.5 0
S_2173044306 RG1 2173044306 0.54388 85 73.75 0.5 0
S_2173044401 RG1 2173044401 0.54388 85 73.75 0.5 0
S_2173044402 RG1 2173044402 0.54388 85 73.75 0.5 0
S_2173044403 RG1 2173044403 0.54388 85 73.75 0.5 0
S_2173044404 RG1 2173044404 0.54388 85 73.75 0.5 0
S_2173044405 RG1 2173044405 0.54388 85 73.75 0.5 0
S_2173044406 RG1 2173044406 0.54388 85 73.75 0.5 0
S_2173044502 RG1 2173044502 0.54388 85 73.75 0.5 0
S_2173044504 RG1 2173044504 0.54388 85 73.75 0.5 0
S_2173044505 RG1 2173044505 0.54388 85 73.75 0.5 0
S_2173044506 RG1 2173044506 0.54388 85 73.75 0.5 0
S_2173044507 RG1 2173044507 0.54388 85 73.75 0.5 0
S_2173044601 RG1 2173044601 0.54388 85 73.75 0.5 0
S_2173044602 RG1 2173044602 0.54388 85 73.75 0.5 0
S_2173045101 RG1 2173045101 0.54388 85 73.75 0.5 0
S_2173045102 RG1 2173045102 0.54388 85 73.75 0.5 0
S_2173045103 RG1 2173045103 0.54388 85 73.75 0.5 0
S_2173045104 RG1 2173045104 0.54388 85 73.75 0.5 0
S_2173045105 RG1 2173045105 0.54388 85 73.75 0.5 0
S_2173045201 RG1 2173045201 0.54388 85 73.75 0.5 0
S_2173045202 RG1 2173045202 0.54388 85 73.75 0.5 0
S_2173045203 RG1 2173045203 0.54388 85 73.75 0.5 0
S_2173045204 RG1 2173045204 0.54388 85 73.75 0.5 0
S_2173045205 RG1 2173045205 0.54388 85 73.75 0.5 0
S_2173045210 RG1 2173045210 0.54388 85 73.75 0.5 0
S_2173045301 RG1 2173045301 0.54388 85 73.75 0.5 0
S_2173045302 RG1 2173045302 0.54388 85 73.75 0.5 0
S_2173045303 RG1 2173045303 0.54388 85 73.75 0.5 0
S_2173045304 RG1 2173045304 0.54388 85 73.75 0.5 0
S_2173045305 RG1 2173045305 0.54388 85 73.75 0.5 0
S_2173045306 RG1 2173045306 0.54388 85 73.75 0.5 0
S_2173045401 RG1 2173045401 0.54388 85 73.75 0.5 0
S_2173045402 RG1 2173045402 0.54388 85 73.75 0.5 0
S_2173045501 RG1 2173045501 0.54388 85 73.75 0.5 0
S_2173045502 RG1 2173045502 0.54388 85 73.75 0.5 0
S_2173045503 RG1 2173045503 0.54388 85 73.75 0.5 0
S_2173045504 RG1 2173045504 0.54388 85 73.75 0.5 0
S_2173045505 RG1 2173045505 0.54388 85 73.75 0.5 0
S_2173045603 RG1 2173045603 0.54388 85 73.75 0.5 0
S_2173045604 RG1 2173045604 0.54388 85 73.75 0.5 0
S_2173045901 RG1 2173045901 0.54388 85 73.75 0.5 0
S_2173046104 RG1 2173046104 0.54388 85 73.75 0.5 0
S_2173046106 RG1 2173046106 0.54388 85 73.75 0.5 0
S_2173046203 RG1 2173046203 0.54388 85 73.75 0.5 0
S_2173046301 RG1 2173046301 0.54388 85 73.75 0.5 0
S_2173046401 RG1 2173046401 0.54388 85 73.75 0.5 0
S_2173046402 RG1 2173046402 0.54388 85 73.75 0.5 0
S_2173046403 RG1 2173046403 0.54388 85 73.75 0.5 0
S_2173046404 RG1 2173046404 0.54388 85 73.75 0.5 0
S_2173046405 RG1 2173046405 0.54388 85 73.75 0.5 0
S_2173046406 RG1 2173046406 0.54388 85 73.75 0.5 0
S_2173046409 RG1 2173046409 0.54388 85 73.75 0.5 0
S_2173046410 RG1 2173046410 0.54388 85 73.75 0.5 0
S_2173046412 RG1 2173046412 0.54388 85 73.75 0.5 0
S_2173046413 RG1 2173046413 0.54388 85 73.75 0.5 0
S_2173046414 RG1 2173046414 0.54388 85 73.75 0.5 0
S_2173046501 RG1 2173046501 0.54388 85 73.75 0.5 0
S_2173046601 RG1 2173046601 0.54388 85 73.75 0.5 0
S_2173046602 RG1 2173046602 0.54388 85 73.75 0.5 0
S_2173046603 RG1 2173046603 0.54388 85 73.75 0.5 0
S_2173046707 RG1 2173046707 0.54388 85 73.75 0.5 0
S_2173046709 RG1 2173046709 0.54388 85 73.75 0.5 0
S_2173046901 RG1 2173046901 0.54388 85 73.75 0.5 0
S_2173046902 RG1 2173046902 0.54388 85 73.75 0.5 0
S_2173047001 RG1 2173047001 0.54388 85 73.75 0.5 0
S_2173047002 RG1 2173047002 0.54388 85 73.75 0.5 0
S_2173047003 RG1 2173047003 0.54388 85 73.75 0.5 0
S_2173047004 RG1 2173047004 0.54388 85 73.75 0.5 0
S_2173047005 RG1 2173047005 0.54388 85 73.75 0.5 0
S_2173047101 RG1 2173047101 0.54388 85 73.75 0.5 0
S_2173047102 RG1 2173047102 0.54388 85 73.75 0.5 0
S_2173047103 RG1 2173047103 0.54388 85 73.75 0.5 0
S_2173047104 RG1 2173047104 0.54388 85 73.75 0.5 0
S_2173047105 RG1 2173047105 0.54388 85 73.75 0.5 0
S_2173047301 RG1 2173047301 0.54388 85 73.75 0.5 0
S_2173047302 RG1 2173047302 0.54388 85 73.75 0.5 0
S_2173047402 RG1 2173047402 0.54388 85 73.75 0.5 0
S_2173047501 RG1 2173047501 0.54388 85 73.75 0.5 0
S_2173047502 RG1 2173047502 0.54388 85 73.75 0.5 0
S_2173047503 RG1 2173047503 0.54388 85 73.75 0.5 0
S_2173047504 RG1 2173047504 0.54388 85 73.75 0.5 0
S_2173047505 RG1 2173047505 0.54388 85 73.75 0.5 0
S_2173047506 RG1 2173047506 0.54388 85 73.75 0.5 0
S_2173047601 RG1 2173047601 0.54388 85 73.75 0.5 0
S_2173047602 RG1 2173047602 0.54388 85 73.75 0.5 0
S_2173047603 RG1 2173047603 0.54388 85 73.75 0.5 0
S_2173047604 RG1 2173047604 0.54388 85 73.75 0.5 0
S_2173047701 RG1 2173047701 0.54388 85 73.75 0.5 0
S_2173047702 RG1 2173047702 0.54388 85 73.75 0.5 0
S_2173047703 RG1 2173047703 0.54388 85 73.75 0.5 0
S_2173047704 RG1 2173047704 0.54388 85 73.75 0.5 0
S_2173047801 RG1 2173047801 0.54388 85 73.75 0.5 0
S_2173047802 RG1 2173047802 0.54388 85 73.75 0.5 0
S_2173047803 RG1 2173047803 0.54388 85 73.75 0.5 0
S_2173047804 RG1 2173047804 0.54388 85 73.75 0.5 0
S_2173047805 RG1 2173047805 0.54388 85 73.75 0.5 0
S_2173047902 RG1 2173047902 0.54388 85 73.75 0.5 0
S_2173047903 RG1 2173047903 0.54388 85 73.75 0.5 0
S_2173047904 RG1 2173047904 0.54388 85 73.75 0.5 0
S_2173048001 RG1 2173048001 0.54388 85 73.75 0.5 0
S_2173048002 RG1 2173048002 0.54388 85 73.75 0.5 0
S_2173048003 RG1 2173048003 0.54388 85 73.75 0.5 0
S_2173048004 RG1 2173048004 0.54388 85 73.75 0.5 0
S_2173048005 RG1 2173048005 0.54388 85 73.75 0.5 0
S_2173048006 RG1 2173048006 0.54388 85 73.75 0.5 0
S_2173048007 RG1 2173048007 0.54388 85 73.75 0.5 0
S_2173048008 RG1 2173048008 0.54388 85 73.75 0.5 0
S_2173048101 RG1 2173048101 0.54388 85 73.75 0.5 0
S_2173048102 RG1 2173048102 0.54388 85 73.75 0.5 0
S_2173048103 RG1 2173048103 0.54388 85 73.75 0.5 0
S_2173048104 RG1 2173048104 0.54388 85 73.75 0.5 0
S_2173048106 RG1 2173048106 0.54388 85 73.75 0.5 0
S_2173048201 RG1 2173048201 0.54388 85 73.75 0.5 0
S_2173048204 RG1 2173048204 0.54388 85 73.75 0.5 0
S_2173048303 RG1 2173048303 0.54388 85 73.75 0.5 0
S_2173048305 RG1 2173048305 0.54388 85 73.75 0.5 0
S_2173048403 RG1 2173048403 0.54388 85 73.75 0.5 0
S_2173048503 RG1 2173048503 0.54388 85 73.75 0.5 0
S_2173048601 RG1 2173048601 0.54388 85 73.75 0.5 0
S_2173048602 RG1 2173048602 0.54388 85 73.75 0.5 0
S_2173048603 RG1 2173048603 0.54388 85 73.75 0.5 0
S_2173048604 RG1 2173048604 0.54388 85 73.75 0.5 0
S_2173048701 RG1 2173048701 0.54388 85 73.75 0.5 0
S_2173048702 RG1 2173048702 0.54388 85 73.75 0.5 0
S_2173048703 RG1 2173048703 0.54388 85 73.75 0.5 0
S_2173048704 RG1 2173048704 0.54388 85 73.75 0.5 0
S_2173048705 RG1 2173048705 0.54388 85 73.75 0.5 0
S_2173048801 RG1 2173048801 0.54388 85 73.75 0.5 0
S_2173048802 RG1 2173048802 0.54388 85 73.75 0.5 0
S_2173048803 RG1 2173048803 0.54388 85 73.75 0.5 0
S_2173048901 RG1 2173048901 0.54388 85 73.75 0.5 0
S_2173048902 RG1 2173048902 0.54388 85 73.75 0.5 0
S_2173048903 RG1 2173048903 0.54388 85 73.75 0.5 0
S_2173048904 RG1 2173048904 0.54388 85 73.75 0.5 0
S_2173049001 RG1 2173049001 0.54388 85 73.75 0.5 0
S_2173049002 RG1 2173049002 0.54388 85 73.75 0.5 0
S_2173049201 RG1 2173049201 0.54388 85 73.75 0.5 0
S_2173049202 RG1 2173049202 0.54388 85 73.75 0.5 0
S_2173049203 RG1 2173049203 0.54388 85 73.75 0.5 0
S_2173049204 RG1 2173049204 0.54388 85 73.75 0.5 0
S_2173049205 RG1 2173049205 0.54388 85 73.75 0.5 0
S_2173049206 RG1 2173049206 0.54388 85 73.75 0.5 0
S_2173049207 RG1 2173049207 0.54388 85 73.75 0.5 0
S_2173049301 RG1 2173049301 0.54388 85 73.75 0.5 0
S_2173049302 RG1 2173049302 0.54388 85 73.75 0.5 0
S_2173049303 RG1 2173049303 0.54388 85 73.75 0.5 0
S_2173049304 RG1 2173049304 0.54388 85 73.75 0.5 0
S_2173049401 RG1 2173049401 0.54388 85 73.75 0.5 0
S_2173049402 RG1 2173049402 0.54388 85 73.75 0.5 0
S_2173049403 RG1 2173049403 0.54388 85 73.75 0.5 0
S_2173049404 RG1 2173049404 0.54388 85 73.75 0.5 0
S_2173049405 RG1 2173049405 0.54388 85 73.75 0.5 0
S_2173049501 RG1 2173049501 0.54388 85 73.75 0.5 0
S_2173049601 RG1 2173049601 0.54388 85 73.75 0.5 0
S_2173049602 RG1 2173049602 0.54388 85 73.75 0.5 0
S_2173049603 RG1 2173049603 0.54388 85 73.75 0.5 0
S_2173049701 RG1 2173049701 0.54388 85 73.75 0.5 0
S_2173049702 RG1 2173049702 0.54388 85 73.75 0.5 0
S_2173049801 RG1 2173049801 0.54388 85 73.75 0.5 0
S_2173049802 RG1 2173049802 0.54388 85 73.75 0.5 0
S_2173049803 RG1 2173049803 0.54388 85 73.75 0.5 0
S_2173049804 RG1 2173049804 0.54388 85 73.75 0.5 0
S_2173049805 RG1 2173049805 0.54388 85 73.75 0.5 0
S_2173049806 RG1 2173049806 0.54388 85 73.75 0.5 0
S_2173049807 RG1 2173049807 0.54388 85 73.75 0.5 0
S_2173049808 RG1 2173049808 0.54388 85 73.75 0.5 0
S_2173049901 RG1 2173049901 0.54388 85 73.75 0.5 0
S_2173049902 RG1 2173049902 0.54388 85 73.75 0.5 0
S_2173049903 RG1 2173049903 0.54388 85 73.75 0.5 0
S_2173049904 RG1 2173049904 0.54388 85 73.75 0.5 0
S_2173049905 RG1 2173049905 0.54388 85 73.75 0.5 0
S_2173050301 RG1 2173050301 0.54388 85 73.75 0.5 0
S_2173050301_ RG1 2173050301_ 0.54388 85 73.75 0.5 0
S_2173050302 RG1 2173050302 0.54388 85 73.75 0.5 0
S_2173050401 RG1 2173050401 0.54388 85 73.75 0.5 0
S_2173050601 RG1 2173050601 0.54388 85 73.75 0.5 0
S_2173051401 RG1 2173051401 0.54388 85 73.75 0.5 0
S_2173051402 RG1 2173051402 0.54388 85 73.75 0.5 0
S_2173051501 RG1 2173051501 0.54388 85 73.75 0.5 0
S_2173051502 RG1 2173051502 0.54388 85 73.75 0.5 0
S_2173052501 RG1 2173052501 0.54388 85 73.75 0.5 0
S_2173052502 RG1 2173052502 0.54388 85 73.75 0.5 0
S_2173053001 RG1 2173053001 0.54388 85 73.75 0.5 0
S_2173053002 RG1 2173053002 0.54388 85 73.75 0.5 0
S_2173053101 RG1 2173053101 0.54388 85 73.75 0.5 0
S_2173053201 RG1 2173053201 0.54388 85 73.75 0.5 0
S_2173053202 RG1 2173053202 0.54388 85 73.75 0.5 0
S_2173053203 RG1 2173053203 0.54388 85 73.75 0.5 0
S_2173053301 RG1 2173053301 0.54388 85 73.75 0.5 0
S_2173053401 RG1 2173053401 0.54388 85 73.75 0.5 0
S_2173053402 RG1 2173053402 0.54388 85 73.75 0.5 0
S_2173053403 RG1 2173053403 0.54388 85 73.75 0.5 0
S_2173054101 RG1 2173054101 0.54388 85 73.75 0.5 0
S_2173054201 RG1 2173054201 0.54388 85 73.75 0.5 0
S_2173054202 RG1 2173054202 0.54388 85 73.75 0.5 0
S_2173054301 RG1 2173054301 0.54388 85 73.75 0.5 0
S_2173054401 RG1 2173054401 0.54388 85 73.75 0.5 0
S_2173054505 RG1 2173054505 0.54388 85 73.75 0.5 0
S_2173054506 RG1 2173054506 0.54388 85 73.75 0.5 0
S_2173054507 RG1 2173054507 0.54388 85 73.75 0.5 0
S_2173054508 RG1 2173054508 0.54388 85 73.75 0.5 0
S_2173054509 RG1 2173054509 0.54388 85 73.75 0.5 0
S_2173054510 RG1 2173054510 0.54388 85 73.75 0.5 0
S_2173054511 RG1 2173054511 0.54388 85 73.75 0.5 0
S_2173054512 RG1 2173054512 0.54388 85 73.75 0.5 0
S_2173054513 RG1 2173054513 0.54388 85 73.75 0.5 0
S_2173054601 RG1 2173054601 0.54388 85 73.75 0.5 0
S_2173054602 RG1 2173054602 0.54388 85 73.75 0.5 0
S_2173054603 RG1 2173054603 0.54388 85 73.75 0.5 0
S_2173054604 RG1 2173054604 0.54388 85 73.75 0.5 0
S_2173054605 RG1 2173054605 0.54388 85 73.75 0.5 0
S_2173054606 RG1 2173054606 0.54388 85 73.75 0.5 0
S_2173054607 RG1 2173054607 0.54388 85 73.75 0.5 0
S_2173054608 RG1 2173054608 0.54388 85 73.75 0.5 0
S_2173054609 RG1 2173054609 0.54388 85 73.75 0.5 0
S_2173054610 RG1 2173054610 0.54388 85 73.75 0.5 0
S_2173054611 RG1 2173054611 0.54388 85 73.75 0.5 0
S_2173055401 RG1 2173055401 0.54388 85 73.75 0.5 0
S_2173055503 RG1 2173055503 0.54388 85 73.75 0.5 0
S_2173055505 RG1 2173055505 0.54388 85 73.75 0.5 0
S_2173055506 RG1 2173055506 0.54388 85 73.75 0.5 0
S_2173055507 RG1 2173055507 0.54388 85 73.75 0.5 0
S_2173055601 RG1 2173055601 0.54388 85 73.75 0.5 0
S_2173055602 RG1 2173055602 0.54388 85 73.75 0.5 0
S_2173055603 RG1 2173055603 0.54388 85 73.75 0.5 0
S_2173055604 RG1 2173055604 0.54388 85 73.75 0.5 0
S_2173055605 RG1 2173055605 0.54388 85 73.75 0.5 0
S_2173055606 RG1 2173055606 0.54388 85 73.75 0.5 0
S_2173056601 RG1 2173056601 0.54388 85 73.75 0.5 0
S_2173056602 RG1 2173056602 0.54388 85 73.75 0.5 0
S_2173056701 RG1 2173056701 0.54388 85 73.75 0.5 0
S_2173057001 RG1 2173057001 0.54388 85 73.75 0.5 0
S_2173057005 RG1 2173057005 0.54388 85 73.75 0.5 0
S_2173058001 RG1 2173058001 0.54388 85 73.75 0.5 0
S_2173058003 RG1 2173058003 0.54388 85 73.75 0.5 0
S_2173058005 RG1 2173058005 0.54388 85 73.75 0.5 0
S_2173058007 RG1 2173058007 0.54388 85 73.75 0.5 0
S_2173058101 RG1 2173058101 0.54388 85 73.75 0.5 0
S_2173058102 RG1 2173058102 0.54388 85 73.75 0.5 0
S_2173058103 RG1 2173058103 0.54388 85 73.75 0.5 0
S_2173058106 RG1 2173058106 0.54388 85 73.75 0.5 0
S_2173058203 RG1 2173058203 0.54388 85 73.75 0.5 0
S_2173058205 RG1 2173058205 0.54388 85 73.75 0.5 0
S_2173058206 RG1 2173058206 0.54388 85 73.75 0.5 0
S_2173058301 RG1 2173058301 0.54388 85 73.75 0.5 0
S_2173058303 RG1 2173058303 0.54388 85 73.75 0.5 0
S_2173058305 RG1 2173058305 0.54388 85 73.75 0.5 0
S_2173058306 RG1 2173058306 0.54388 85 73.75 0.5 0
S_2173058308 RG1 2173058308 0.54388 85 73.75 0.5 0
S_2173058401 RG1 2173058401 0.54388 85 73.75 0.5 0
S_2173058402 RG1 2173058402 0.54388 85 73.75 0.5 0
S_2173059001 RG1 2173059001 0.54388 85 73.75 0.5 0
S_2173059002 RG1 2173059002 0.54388 85 73.75 0.5 0
S_2173059003 RG1 2173059003 0.54388 85 73.75 0.5 0
S_2173059004 RG1 2173059004 0.54388 85 73.75 0.5 0
S_2173059005 RG1 2173059005 0.54388 85 73.75 0.5 0
S_2173059006 RG1 2173059006 0.54388 85 73.75 0.5 0
S_2173059007 RG1 2173059007 0.54388 85 73.75 0.5 0
S_2173059103 RG1 2173059103 0.54388 85 73.75 0.5 0
S_2173059104 RG1 2173059104 0.54388 85 73.75 0.5 0
S_2173059105 RG1 2173059105 0.54388 85 73.75 0.5 0
S_2173059201 RG1 2173059201 0.54388 85 73.75 0.5 0
S_2173059202 RG1 2173059202 0.54388 85 73.75 0.5 0
S_2173059204 RG1 2173059204 0.54388 85 73.75 0.5 0
S_2173059301 RG1 2173059301 0.54388 85 73.75 0.5 0
S_2173059401 RG1 2173059401 0.54388 85 73.75 0.5 0
S_2173059402 RG1 2173059402 0.54388 85 73.75 0.5 0
S_2173059403 RG1 2173059403 0.54388 85 73.75 0.5 0
S_2173059404 RG1 2173059404 0.54388 85 73.75 0.5 0
S_2173059405 RG1 2173059405 0.54388 85 73.75 0.5 0
S_2173059406 RG1 2173059406 0.54388 85 73.75 0.5 0
S_2173059407 RG1 2173059407 0.54388 85 73.75 0.5 0
S_2173059408 RG1 2173059408 0.54388 85 73.75 0.5 0
S_2173059501 RG1 2173059501 0.54388 85 73.75 0.5 0
S_2173059502 RG1 2173059502 0.54388 85 73.75 0.5 0
S_2173059503 RG1 2173059503 0.54388 85 73.75 0.5 0
S_2173059504 RG1 2173059504 0.54388 85 73.75 0.5 0
S_2173059505 RG1 2173059505 0.54388 85 73.75 0.5 0
S_2173059601 RG1 2173059601 0.54388 85 73.75 0.5 0
S_2174031101 RG1 2174031101 0.54388 85 73.75 0.5 0
S_2174031203 RG1 2174031203 0.54388 85 73.75 0.5 0
S_2174031306 RG1 2174031306 0.54388 85 73.75 0.5 0
S_2174031405 RG1 2174031405 0.54388 85 73.75 0.5 0
S_2174031701 RG1 2174031701 0.54388 85 73.75 0.5 0
S_2174031704 RG1 2174031704 0.54388 85 73.75 0.5 0
S_2174032201 RG1 2174032201 0.54388 85 73.75 0.5 0
S_2174032202 RG1 2174032202 0.54388 85 73.75 0.5 0
S_2174032203 RG1 2174032203 0.54388 85 73.75 0.5 0
S_2174032303 RG1 2174032303 0.54388 85 73.75 0.5 0
S_2174032304 RG1 2174032304 0.54388 85 73.75 0.5 0
S_2174032305 RG1 2174032305 0.54388 85 73.75 0.5 0
S_2174032306 RG1 2174032306 0.54388 85 73.75 0.5 0
S_2174032307 RG1 2174032307 0.54388 85 73.75 0.5 0
S_2174032601 RG1 2174032601 0.54388 85 73.75 0.5 0
S_2174033201 RG1 2174033201 0.54388 85 73.75 0.5 0
S_2174033202 RG1 2174033202 0.54388 85 73.75 0.5 0
S_2174033203 RG1 2174033203 0.54388 85 73.75 0.5 0
S_2174033204 RG1 2174033204 0.54388 85 73.75 0.5 0
S_2174033205 RG1 2174033205 0.54388 85 73.75 0.5 0
S_2174033206 RG1 2174033206 0.54388 85 73.75 0.5 0
S_2174033207 RG1 2174033207 0.54388 85 73.75 0.5 0
S_2174033301 RG1 2174033301 0.54388 85 73.75 0.5 0
S_2174033302 RG1 2174033302 0.54388 85 73.75 0.5 0
S_2174033304 RG1 2174033304 0.54388 85 73.75 0.5 0
S_2174033306 RG1 2174033306 0.54388 85 73.75 0.5 0
S_2174033308 RG1 2174033308 0.54388 85 73.75 0.5 0
S_2174033309 RG1 2174033309 0.54388 85 73.75 0.5 0
S_2174033310 RG1 2174033310 0.54388 85 73.75 0.5 0
S_2174040001 RG1 2174040001 0.54388 85 73.75 0.5 0
S_2174040102 RG1 2174040102 0.54388 85 73.75 0.5 0
S_2174040103 RG1 2174040103 0.54388 85 73.75 0.5 0
S_2174040104 RG1 2174040104 0.54388 85 73.75 0.5 0
S_2174040105 RG1 2174040105 0.54388 85 73.75 0.5 0
S_2174040106 RG1 2174040106 0.54388 85 73.75 0.5 0
S_2174040107 RG1 2174040107 0.54388 85 73.75 0.5 0
S_2174040201 RG1 2174040201 0.54388 85 73.75 0.5 0
S_2174040202 RG1 2174040202 0.54388 85 73.75 0.5 0
S_2174040203 RG1 2174040203 0.54388 85 73.75 0.5 0
S_2174040204 RG1 2174040204 0.54388 85 73.75 0.5 0
S_2174040301 RG1 2174040301 0.54388 85 73.75 0.5 0
S_2174040302 RG1 2174040302 0.54388 85 73.75 0.5 0
S_2174040303 RG1 2174040303 0.54388 85 73.75 0.5 0
S_2174040401 RG1 2174040401 0.54388 85 73.75 0.5 0
S_2174040402 RG1 2174040402 0.54388 85 73.75 0.5 0
S_2174040403 RG1 2174040403 0.54388 85 73.75 0.5 0
S_2174040404 RG1 2174040404 0.54388 85 73.75 0.5 0
S_2174040405 RG1 2174040405 0.54388 85 73.75 0.5 0
S_2174040502 RG1 2174040502 0.54388 85 73.75 0.5 0
S_2174040601 RG1 2174040601 0.54388 85 73.75 0.5 0
S_2174040602 RG1 2174040602 0.54388 85 73.75 0.5 0
S_2174040603 RG1 2174040603 0.54388 85 73.75 0.5 0
S_2174040701 RG1 2174040701 0.54388 85 73.75 0.5 0
S_2174040702 RG1 2174040702 0.54388 85 73.75 0.5 0
S_2174040703 RG1 2174040703 0.54388 85 73.75 0.5 0
S_2174040704 RG1 2174040704 0.54388 85 73.75 0.5 0
S_2174040705 RG1 2174040705 0.54388 85 73.75 0.5 0
S_2174040706 RG1 2174040706 0.54388 85 73.75 0.5 0
S_2174040901 RG1 2174040901 0.54388 85 73.75 0.5 0
S_2174040902 RG1 2174040902 0.54388 85 73.75 0.5 0
S_2174040904 RG1 2174040904 0.54388 85 73.75 0.5 0
S_2174040905 RG1 2174040905 0.54388 85 73.75 0.5 0
S_2174040906 RG1 2174040906 0.54388 85 73.75 0.5 0
S_2174040907 RG1 2174040907 0.54388 85 73.75 0.5 0
S_2174040908 RG1 2174040908 0.54388 85 73.75 0.5 0
S_2174041101 RG1 2174041101 0.54388 85 73.75 0.5 0
S_2174041102 RG1 2174041102 0.54388 85 73.75 0.5 0
S_2174041103 RG1 2174041103 0.54388 85 73.75 0.5 0
S_2174041104 RG1 2174041104 0.54388 85 73.75 0.5 0
S_2174041105 RG1 2174041105 0.54388 85 73.75 0.5 0
S_2174041201 RG1 2174041201 0.54388 85 73.75 0.5 0
S_2174041202 RG1 2174041202 0.54388 85 73.75 0.5 0
S_2174041203 RG1 2174041203 0.54388 85 73.75 0.5 0
S_2174041204 RG1 2174041204 0.54388 85 73.75 0.5 0
S_2174041205 RG1 2174041205 0.54388 85 73.75 0.5 0
S_2174041206 RG1 2174041206 0.54388 85 73.75 0.5 0
S_2174041207 RG1 2174041207 0.54388 85 73.75 0.5 0
S_2174041208 RG1 2174041208 0.54388 85 73.75 0.5 0
S_2174041301 RG1 2174041301 0.54388 85 73.75 0.5 0
S_2174041302 RG1 2174041302 0.54388 85 73.75 0.5 0
S_2174041303 RG1 2174041303 0.54388 85 73.75 0.5 0
S_2174041304 RG1 2174041304 0.54388 85 73.75 0.5 0
S_2174041305 RG1 2174041305 0.54388 85 73.75 0.5 0
S_2174041401 RG1 2174041401 0.54388 85 73.75 0.5 0
S_2174041402 RG1 2174041402 0.54388 85 73.75 0.5 0
S_2174041403 RG1 2174041403 0.54388 85 73.75 0.5 0
S_2174041404 RG1 2174041404 0.54388 85 73.75 0.5 0
S_2174041405 RG1 2174041405 0.54388 85 73.75 0.5 0
S_2174041501 RG1 2174041501 0.54388 85 73.75 0.5 0
S_2174041502 RG1 2174041502 0.54388 85 73.75 0.5 0
S_2174041503 RG1 2174041503 0.54388 85 73.75 0.5 0
S_2174041504 RG1 2174041504 0.54388 85 73.75 0.5 0
S_2174041601 RG1 2174041601 0.54388 85 73.75 0.5 0
S_2174041602 RG1 2174041602 0.54388 85 73.75 0.5 0
S_2174041603 RG1 2174041603 0.54388 85 73.75 0.5 0
S_2174041704 RG1 2174041704 0.54388 85 73.75 0.5 0
S_2174041705 RG1 2174041705 0.54388 85 73.75 0.5 0
S_2174041801 RG1 2174041801 0.54388 85 73.75 0.5 0
S_2174041803 RG1 2174041803 0.54388 85 73.75 0.5 0
S_2174041806 RG1 2174041806 0.54388 85 73.75 0.5 0
S_2174041807 RG1 2174041807 0.54388 85 73.75 0.5 0
S_2174041901 RG1 2174041901 0.54388 85 73.75 0.5 0
S_2174042201 RG1 2174042201 0.54388 85 73.75 0.5 0
S_2174042202 RG1 2174042202 0.54388 85 73.75 0.5 0
S_2174042203 RG1 2174042203 0.54388 85 73.75 0.5 0
S_2174042204 RG1 2174042204 0.54388 85 73.75 0.5 0
S_2174042301 RG1 2174042301 0.54388 85 73.75 0.5 0
S_2174042302 RG1 2174042302 0.54388 85 73.75 0.5 0
S_2174042303 RG1 2174042303 0.54388 85 73.75 0.5 0
S_2174042401 RG1 2174042401 0.54388 85 73.75 0.5 0
S_2174042402 RG1 2174042402 0.54388 85 73.75 0.5 0
S_2174042403 RG1 2174042403 0.54388 85 73.75 0.5 0
S_2174042404 RG1 2174042404 0.54388 85 73.75 0.5 0
S_2174042501 RG1 2174042501 0.54388 85 73.75 0.5 0
S_2174042502 RG1 2174042502 0.54388 85 73.75 0.5 0
S_2174042604 RG1 2174042604 0.54388 85 73.75 0.5 0
S_2174042605 RG1 2174042605 0.54388 85 73.75 0.5 0
S_2174042704 RG1 2174042704 0.54388 85 73.75 0.5 0
S_2174042901 RG1 2174042901 0.54388 85 73.75 0.5 0
S_2174042902 RG1 2174042902 0.54388 85 73.75 0.5 0
S_2174042903 RG1 2174042903 0.54388 85 73.75 0.5 0
S_2174042904 RG1 2174042904 0.54388 85 73.75 0.5 0
S_2174042905 RG1 2174042905 0.54388 85 73.75 0.5 0
S_2174042906 RG1 2174042906 0.54388 85 73.75 0.5 0
S_2174042907 RG1 2174042907 0.54388 85 73.75 0.5 0
S_2174043203 RG1 2174043203 0.54388 85 73.75 0.5 0
S_2174043301 RG1 2174043301 0.54388 85 73.75 0.5 0
S_2174043302 RG1 2174043302 0.54388 85 73.75 0.5 0
S_2174043303 RG1 2174043303 0.54388 85 73.75 0.5 0
S_2174043401 RG1 2174043401 0.54388 85 73.75 0.5 0
S_2174043402 RG1 2174043402 0.54388 85 73.75 0.5 0
S_2174043403 RG1 2174043403 0.54388 85 73.75 0.5 0
S_2174043501 RG1 2174043501 0.54388 85 73.75 0.5 0
S_2174043502 RG1 2174043502 0.54388 85 73.75 0.5 0
S_2174043701 RG1 2174043701 0.54388 85 73.75 0.5 0
S_2174043801 RG1 2174043801 0.54388 85 73.75 0.5 0
S_2174043802 RG1 2174043802 0.54388 85 73.75 0.5 0
S_2174043803 RG1 2174043803 0.54388 85 73.75 0.5 0
S_2174043901 RG1 2174043901 0.54388 85 73.75 0.5 0
S_2174043902 RG1 2174043902 0.54388 85 73.75 0.5 0
S_2174043903 RG1 2174043903 0.54388 85 73.75 0.5 0
S_2174043904 RG1 2174043904 0.54388 85 73.75 0.5 0
S_2174043905 RG1 2174043905 0.54388 85 73.75 0.5 0
S_2174050001 RG1 2174050001 0.54388 85 73.75 0.5 0
S_2174050002 RG1 2174050002 0.54388 85 73.75 0.5 0
S_2174050003 RG1 2174050003 0.54388 85 73.75 0.5 0
S_2174050004 RG1 2174050004 0.54388 85 73.75 0.5 0
S_2174050101 RG1 2174050101 0.54388 85 73.75 0.5 0
S_2174050102 RG1 2174050102 0.54388 85 73.75 0.5 0
S_2174050103 RG1 2174050103 0.54388 85 73.75 0.5 0
S_2174050104 RG1 2174050104 0.54388 85 73.75 0.5 0
S_2174050105 RG1 2174050105 0.54388 85 73.75 0.5 0
S_2174050106 RG1 2174050106 0.54388 85 73.75 0.5 0
S_2174050202 RG1 2174050202 0.54388 85 73.75 0.5 0
S_2174050203 RG1 2174050203 0.54388 85 73.75 0.5 0
S_2174050204 RG1 2174050204 0.54388 85 73.75 0.5 0
S_2174050205 RG1 2174050205 0.54388 85 73.75 0.5 0
S_2174050304 RG1 2174050304 0.54388 85 73.75 0.5 0
S_2174050305 RG1 2174050305 0.54388 85 73.75 0.5 0
S_2174050401 RG1 2174050401 0.54388 85 73.75 0.5 0
S_2174050405 RG1 2174050405 0.54388 85 73.75 0.5 0
S_2174050501 RG1 2174050501 0.54388 85 73.75 0.5 0
S_2174050502 RG1 2174050502 0.54388 85 73.75 0.5 0
S_2174050503 RG1 2174050503 0.54388 85 73.75 0.5 0
S_2174050504 RG1 2174050504 0.54388 85 73.75 0.5 0
S_2174050505 RG1 2174050505 0.54388 85 73.75 0.5 0
S_2174050506 RG1 2174050506 0.54388 85 73.75 0.5 0
S_2174050507 RG1 2174050507 0.54388 85 73.75 0.5 0
S_2174050508 RG1 2174050508 0.54388 85 73.75 0.5 0
S_2174050509 RG1 2174050509 0.54388 85 73.75 0.5 0
S_2174050510 RG1 2174050510 0.54388 85 73.75 0.5 0
S_2174050511 RG1 2174050511 0.54388 85 73.75 0.5 0
S_2174050601 RG1 2174050601 0.54388 85 73.75 0.5 0
S_2174050602 RG1 2174050602 0.54388 85 73.75 0.5 0
S_2174050603 RG1 2174050603 0.54388 85 73.75 0.5 0
S_2174050604 RG1 2174050604 0.54388 85 73.75 0.5 0
S_2174050605 RG1 2174050605 0.54388 85 73.75 0.5 0
S_2174050606 RG1 2174050606 0.54388 85 73.75 0.5 0
S_2174050607 RG1 2174050607 0.54388 85 73.75 0.5 0
S_2174050608 RG1 2174050608 0.54388 85 73.75 0.5 0
S_2174050702 RG1 2174050702 0.54388 85 73.75 0.5 0
S_2174051001 RG1 2174051001 0.54388 85 73.75 0.5 0
S_2174051002 RG1 2174051002 0.54388 85 73.75 0.5 0
S_2174051003 RG1 2174051003 0.54388 85 73.75 0.5 0
S_2174051004 RG1 2174051004 0.54388 85 73.75 0.5 0
S_2174051005 RG1 2174051005 0.54388 85 73.75 0.5 0
S_2174051101 RG1 2174051101 0.54388 85 73.75 0.5 0
S_2174051102 RG1 2174051102 0.54388 85 73.75 0.5 0
S_2174051201 RG1 2174051201 0.54388 85 73.75 0.5 0
S_2174051202 RG1 2174051202 0.54388 85 73.75 0.5 0
S_2174051203 RG1 2174051203 0.54388 85 73.75 0.5 0
S_2174051301 RG1 2174051301 0.54388 85 73.75 0.5 0
S_2174051302 RG1 2174051302 0.54388 85 73.75 0.5 0
S_2174051303 RG1 2174051303 0.54388 85 73.75 0.5 0
S_2174051304 RG1 2174051304 0.54388 85 73.75 0.5 0
S_2174051402 RG1 2174051402 0.54388 85 73.75 0.5 0
S_2174051403 RG1 2174051403 0.54388 85 73.75 0.5 0
S_2174051601 RG1 2174051601 0.54388 85 73.75 0.5 0
S_2174051602 RG1 2174051602 0.54388 85 73.75 0.5 0
S_2174051603 RG1 2174051603 0.54388 85 73.75 0.5 0
S_2174051604 RG1 2174051604 0.54388 85 73.75 0.5 0
S_2174051701 RG1 2174051701 0.54388 85 73.75 0.5 0
S_2174052001 RG1 2174052001 0.54388 85 73.75 0.5 0
S_2174052002 RG1 2174052002 0.54388 85 73.75 0.5 0
S_2174052003 RG1 2174052003 0.54388 85 73.75 0.5 0
S_2174052004 RG1 2174052004 0.54388 85 73.75 0.5 0
S_2174052101 RG1 2174052101 0.54388 85 73.75 0.5 0
S_2174052101_ RG1 2174052101_ 0.54388 85 73.75 0.5 0
S_2174052102 RG1 2174052102 0.54388 85 73.75 0.5 0
S_2174052103 RG1 2174052103 0.54388 85 73.75 0.5 0
S_2174052201 RG1 2174052201 0.54388 85 73.75 0.5 0
S_2174052202 RG1 2174052202 0.54388 85 73.75 0.5 0
S_2174052203 RG1 2174052203 0.54388 85 73.75 0.5 0
S_2174052204 RG1 2174052204 0.54388 85 73.75 0.5 0
S_2174052205 RG1 2174052205 0.54388 85 73.75 0.5 0
S_2174052301 RG1 2174052301 0.54388 85 73.75 0.5 0
S_2174052302 RG1 2174052302 0.54388 85 73.75 0.5 0
S_2174052303 RG1 2174052303 0.54388 85 73.75 0.5 0
S_2174052402 RG1 2174052402 0.54388 85 73.75 0.5 0
S_2174052403 RG1 2174052403 0.54388 85 73.75 0.5 0
S_2174052404 RG1 2174052404 0.54388 85 73.75 0.5 0
S_2174052405 RG1 2174052405 0.54388 85 73.75 0.5 0
S_2174052406 RG1 2174052406 0.54388 85 73.75 0.5 0
S_2174052407 RG1 2174052407 0.54388 85 73.75 0.5 0
S_2174052408 RG1 2174052408 0.54388 85 73.75 0.5 0
S_2174052501_ RG1 2174052501_ 0.54388 85 73.75 0.5 0
S_2174052502_ RG1 2174052502_ 0.54388 85 73.75 0.5 0
S_2174052503 RG1 2174052503 0.54388 85 73.75 0.5 0
S_2174052504 RG1 2174052504 0.54388 85 73.75 0.5 0
S_2174052505 RG1 2174052505 0.54388 85 73.75 0.5 0
S_2174052601 RG1 2174052601 0.54388 85 73.75 0.5 0
S_2174052601_ RG1 2174052601_ 0.54388 85 73.75 0.5 0
S_2174052602 RG1 2174052602 0.54388 85 73.75 0.5 0
S_2174053001 RG1 2174053001 0.54388 85 73.75 0.5 0
S_2174053001_ RG1 2174053001_ 0.54388 85 73.75 0.5 0
S_2174053002 RG1 2174053002 0.54388 85 73.75 0.5 0
S_2174053002_ RG1 2174053002_ 0.54388 85 73.75 0.5 0
S_2174053101 RG1 2174053101 0.54388 85 73.75 0.5 0
S_2174053102 RG1 2174053102 0.54388 85 73.75 0.5 0
S_2174053201 RG1 2174053201 0.54388 85 73.75 0.5 0
S_2174053202 RG1 2174053202 0.54388 85 73.75 0.5 0
S_2174053203 RG1 2174053203 0.54388 85 73.75 0.5 0
S_2174053204 RG1 2174053204 0.54388 85 73.75 0.5 0
S_2174053205 RG1 2174053205 0.54388 85 73.75 0.5 0
S_2174053206 RG1 2174053206 0.54388 85 73.75 0.5 0
S_2174053207 RG1 2174053207 0.54388 85 73.75 0.5 0
S_2174053301 RG1 2174053301 0.54388 85 73.75 0.5 0
S_2174053301_ RG1 2174053301_ 0.54388 85 73.75 0.5 0
S_2174053302 RG1 2174053302 0.54388 85 73.75 0.5 0
S_2174053303 RG1 2174053303 0.54388 85 73.75 0.5 0
S_2174053304 RG1 2174053304 0.54388 85 73.75 0.5 0
S_2174053401 RG1 2174053401 0.54388 85 73.75 0.5 0
S_2174053401_ RG1 2174053401_ 0.54388 85 73.75 0.5 0
S_2174053402 RG1 2174053402 0.54388 85 73.75 0.5 0
S_2174053402_ RG1 2174053402_ 0.54388 85 73.75 0.5 0
S_2174053403 RG1 2174053403 0.54388 85 73.75 0.5 0
S_2174053403_ RG1 2174053403_ 0.54388 85 73.75 0.5 0
S_2174053501 RG1 2174053501 0.54388 85 73.75 0.5 0
S_2174053501_ RG1 2174053501_ 0.54388 85 73.75 0.5 0
S_2174053502 RG1 2174053502 0.54388 85 73.75 0.5 0
S_2174053503 RG1 2174053503 0.54388 85 73.75 0.5 0
S_2174053504 RG1 2174053504 0.54388 85 73.75 0.5 0
S_2174053505 RG1 2174053505 0.54388 85 73.75 0.5 0
S_2174053506 RG1 2174053506 0.54388 85 73.75 0.5 0
S_2174053507 RG1 2174053507 0.54388 85 73.75 0.5 0
S_2174053601 RG1 2174053601 0.54388 85 73.75 0.5 0
S_2174053602 RG1 2174053602 0.54388 85 73.75 0.5 0
S_2174053603 RG1 2174053603 0.54388 85 73.75 0.5 0
S_2174053604 RG1 2174053604 0.54388 85 73.75 0.5 0
S_2174053605 RG1 2174053605 0.54388 85 73.75 0.5 0
S_2174053606 RG1 2174053606 0.54388 85 73.75 0.5 0

[SUBAREAS]
;;Subcatchment N-Imperv N-Perv S-Imperv S-Perv PctZero RouteTo
S_2171039212 0.013 0.1 0.05 0.05 25 OUTLET
S_2171039213 0.013 0.1 0.05 0.05 25 OUTLET
S_2171039214 0.013 0.1 0.05 0.05 25 OUTLET
S_2171039215 0.013 0.1 0.05 0.05 25 OUTLET
S_2171039216 0.013 0.1 0.05 0.05 25 OUTLET
S_2171039217 0.013 0.1 0.05 0.05 25 OUTLET
S_2171039218 0.013 0.1 0.05 0.05 25 OUTLET
S_2171039301 0.013 0.1 0.05 0.05 25 OUTLET
S_2171049801 0.013 0.1 0.05 0.05 25 OUTLET
S_2171049802 0.013 0.1 0.05 0.05 25 OUTLET
S_2171049803 0.013 0.1 0.05 0.05 25 OUTLET
S_2171049804 0.013 0.1 0.05 0.05 25 OUTLET
S_2172030101 0.013 0.1 0.05 0.05 25 OUTLET
S_2172030103 0.013 0.1 0.05 0.05 25 OUTLET
S_2172030104 0.013 0.1 0.05 0.05 25 OUTLET
S_2172030105 0.013 0.1 0.05 0.05 25 OUTLET
S_2172030106 0.013 0.1 0.05 0.05 25 OUTLET
S_2172030107 0.013 0.1 0.05 0.05 25 OUTLET
S_2172030109 0.013 0.1 0.05 0.05 25 OUTLET
S_2172030201 0.013 0.1 0.05 0.05 25 OUTLET
S_2172030301 0.013 0.1 0.05 0.05 25 OUTLET
S_2172030302 0.013 0.1 0.05 0.05 25 OUTLET
S_2172030303 0.013 0.1 0.05 0.05 25 OUTLET
S_2172030304 0.013 0.1 0.05 0.05 25 OUTLET
S_2172030305 0.013 0.1 0.05 0.05 25 OUTLET
S_2172030306 0.013 0.1 0.05 0.05 25 OUTLET
S_2172030402 0.013 0.1 0.05 0.05 25 OUTLET
S_2172030403 0.013 0.1 0.05 0.05 25 OUTLET
S_2172030505 0.013 0.1 0.05 0.05 25 OUTLET
S_2172030506 0.013 0.1 0.05 0.05 25 OUTLET
S_2172030601 0.013 0.1 0.05 0.05 25 OUTLET
S_2172030903 0.013 0.1 0.05 0.05 25 OUTLET
S_2172031301 0.013 0.1 0.05 0.05 25 OUTLET
S_2172031302 0.013 0.1 0.05 0.05 25 OUTLET
S_2172031401 0.013 0.1 0.05 0.05 25 OUTLET
S_2172031402 0.013 0.1 0.05 0.05 25 OUTLET
S_2172031403 0.013 0.1 0.05 0.05 25 OUTLET
S_2172031404 0.013 0.1 0.05 0.05 25 OUTLET
S_2172031405 0.013 0.1 0.05 0.05 25 OUTLET
S_2172031406 0.013 0.1 0.05 0.05 25 OUTLET
S_2172031407 0.013 0.1 0.05 0.05 25 OUTLET
S_2172031408 0.013 0.1 0.05 0.05 25 OUTLET
S_2172031409 0.013 0.1 0.05 0.05 25 OUTLET
S_2172031503 0.013 0.1 0.05 0.05 25 OUTLET
S_2172031505 0.013 0.1 0.05 0.05 25 OUTLET
S_2172031506 0.013 0.1 0.05 0.05 25 OUTLET
S_2172031601 0.013 0.1 0.05 0.05 25 OUTLET
S_2172031602 0.013 0.1 0.05 0.05 25 OUTLET
S_2172031604 0.013 0.1 0.05 0.05 25 OUTLET
S_2172031605 0.013 0.1 0.05 0.05 25 OUTLET
S_2172031801 0.013 0.1 0.05 0.05 25 OUTLET
S_2172031802 0.013 0.1 0.05 0.05 25 OUTLET
S_2172031901 0.013 0.1 0.05 0.05 25 OUTLET
S_2172031902 0.013 0.1 0.05 0.05 25 OUTLET
S_2172032301 0.013 0.1 0.05 0.05 25 OUTLET
S_2172032302 0.013 0.1 0.05 0.05 25 OUTLET
S_2172032303 0.013 0.1 0.05 0.05 25 OUTLET
S_2172032501 0.013 0.1 0.05 0.05 25 OUTLET
S_2172032502 0.013 0.1 0.05 0.05 25 OUTLET
S_2172032503 0.013 0.1 0.05 0.05 25 OUTLET
S_2172032504 0.013 0.1 0.05 0.05 25 OUTLET
S_2172032601 0.013 0.1 0.05 0.05 25 OUTLET
S_2172032602 0.013 0.1 0.05 0.05 25 OUTLET
S_2172032603 0.013 0.1 0.05 0.05 25 OUTLET
S_2172032604 0.013 0.1 0.05 0.05 25 OUTLET
S_2172032605 0.013 0.1 0.05 0.05 25 OUTLET
S_2172032606 0.013 0.1 0.05 0.05 25 OUTLET
S_2172032701 0.013 0.1 0.05 0.05 25 OUTLET
S_2172032702 0.013 0.1 0.05 0.05 25 OUTLET
S_2172032703 0.013 0.1 0.05 0.05 25 OUTLET
S_2172032704 0.013 0.1 0.05 0.05 25 OUTLET
S_2172032705 0.013 0.1 0.05 0.05 25 OUTLET
S_2172032706 0.013 0.1 0.05 0.05 25 OUTLET
S_2172032707 0.013 0.1 0.05 0.05 25 OUTLET
S_2172032708 0.013 0.1 0.05 0.05 25 OUTLET
S_2172032709 0.013 0.1 0.05 0.05 25 OUTLET
S_2172032710 0.013 0.1 0.05 0.05 25 OUTLET
S_2172032803 0.013 0.1 0.05 0.05 25 OUTLET
S_2172033601 0.013 0.1 0.05 0.05 25 OUTLET
S_2172033602 0.013 0.1 0.05 0.05 25 OUTLET
S_2172033603 0.013 0.1 0.05 0.05 25 OUTLET
S_2172033604 0.013 0.1 0.05 0.05 25 OUTLET
S_2172033701 0.013 0.1 0.05 0.05 25 OUTLET
S_2172033702 0.013 0.1 0.05 0.05 25 OUTLET
S_2172033703 0.013 0.1 0.05 0.05 25 OUTLET
S_2172033704 0.013 0.1 0.05 0.05 25 OUTLET
S_2172033705 0.013 0.1 0.05 0.05 25 OUTLET
S_2172033801 0.013 0.1 0.05 0.05 25 OUTLET
S_2172034701 0.013 0.1 0.05 0.05 25 OUTLET
S_2172034702 0.013 0.1 0.05 0.05 25 OUTLET
S_2172034801 0.013 0.1 0.05 0.05 25 OUTLET
S_2172034802 0.013 0.1 0.05 0.05 25 OUTLET
S_2172034803 0.013 0.1 0.05 0.05 25 OUTLET
S_2172034804 0.013 0.1 0.05 0.05 25 OUTLET
S_2172034805 0.013 0.1 0.05 0.05 25 OUTLET
S_2172034806 0.013 0.1 0.05 0.05 25 OUTLET
S_2172035701 0.013 0.1 0.05 0.05 25 OUTLET
S_2172035901 0.013 0.1 0.05 0.05 25 OUTLET
S_2172035902 0.013 0.1 0.05 0.05 25 OUTLET
S_2172035903 0.013 0.1 0.05 0.05 25 OUTLET
S_2172035904 0.013 0.1 0.05 0.05 25 OUTLET
S_2172035905 0.013 0.1 0.05 0.05 25 OUTLET
S_2172035906 0.013 0.1 0.05 0.05 25 OUTLET
S_2172036601 0.013 0.1 0.05 0.05 25 OUTLET
S_2172036602 0.013 0.1 0.05 0.05 25 OUTLET
S_2172036603 0.013 0.1 0.05 0.05 25 OUTLET
S_2172037001 0.013 0.1 0.05 0.05 25 OUTLET
S_2172037202 0.013 0.1 0.05 0.05 25 OUTLET
S_2172037204 0.013 0.1 0.05 0.05 25 OUTLET
S_2172037501 0.013 0.1 0.05 0.05 25 OUTLET
S_2172037502 0.013 0.1 0.05 0.05 25 OUTLET
S_2172037503 0.013 0.1 0.05 0.05 25 OUTLET
S_2172037701 0.013 0.1 0.05 0.05 25 OUTLET
S_2172038101 0.013 0.1 0.05 0.05 25 OUTLET
S_2172038102 0.013 0.1 0.05 0.05 25 OUTLET
S_2172038103 0.013 0.1 0.05 0.05 25 OUTLET
S_2172038104 0.013 0.1 0.05 0.05 25 OUTLET
S_2172038201 0.013 0.1 0.05 0.05 25 OUTLET
S_2172038202 0.013 0.1 0.05 0.05 25 OUTLET
S_2172038203 0.013 0.1 0.05 0.05 25 OUTLET
S_2172038302 0.013 0.1 0.05 0.05 25 OUTLET
S_2172038303 0.013 0.1 0.05 0.05 25 OUTLET
S_2172038306 0.013 0.1 0.05 0.05 25 OUTLET
S_2172038308 0.013 0.1 0.05 0.05 25 OUTLET
S_2172038403 0.013 0.1 0.05 0.05 25 OUTLET
S_2172038404 0.013 0.1 0.05 0.05 25 OUTLET
S_2172038406 0.013 0.1 0.05 0.05 25 OUTLET
S_2172038407 0.013 0.1 0.05 0.05 25 OUTLET
S_2172038501 0.013 0.1 0.05 0.05 25 OUTLET
S_2172038502 0.013 0.1 0.05 0.05 25 OUTLET
S_2172038503 0.013 0.1 0.05 0.05 25 OUTLET
S_2172038505 0.013 0.1 0.05 0.05 25 OUTLET
S_2172038506 0.013 0.1 0.05 0.05 25 OUTLET
S_2172038509 0.013 0.1 0.05 0.05 25 OUTLET
S_2172038512 0.013 0.1 0.05 0.05 25 OUTLET
S_2172038513 0.013 0.1 0.05 0.05 25 OUTLET
S_2172038514 0.013 0.1 0.05 0.05 25 OUTLET
S_2172038602 0.013 0.1 0.05 0.05 25 OUTLET
S_2172038701 0.013 0.1 0.05 0.05 25 OUTLET
S_2172038702 0.013 0.1 0.05 0.05 25 OUTLET
S_2172038703 0.013 0.1 0.05 0.05 25 OUTLET
S_2172038704 0.013 0.1 0.05 0.05 25 OUTLET
S_2172039101 0.013 0.1 0.05 0.05 25 OUTLET
S_2172039102 0.013 0.1 0.05 0.05 25 OUTLET
S_2172039104 0.013 0.1 0.05 0.05 25 OUTLET
S_2172039202 0.013 0.1 0.05 0.05 25 OUTLET
S_2172039203 0.013 0.1 0.05 0.05 25 OUTLET
S_2172039204 0.013 0.1 0.05 0.05 25 OUTLET
S_2172039205 0.013 0.1 0.05 0.05 25 OUTLET
S_2172039206 0.013 0.1 0.05 0.05 25 OUTLET
S_2172039302 0.013 0.1 0.05 0.05 25 OUTLET
S_2172039303 0.013 0.1 0.05 0.05 25 OUTLET
S_2172039304 0.013 0.1 0.05 0.05 25 OUTLET
S_2172039305 0.013 0.1 0.05 0.05 25 OUTLET
S_2172039306 0.013 0.1 0.05 0.05 25 OUTLET
S_2172039307 0.013 0.1 0.05 0.05 25 OUTLET
S_2172039308 0.013 0.1 0.05 0.05 25 OUTLET
S_2172039309 0.013 0.1 0.05 0.05 25 OUTLET
S_2172039310 0.013 0.1 0.05 0.05 25 OUTLET
S_2172039311 0.013 0.1 0.05 0.05 25 OUTLET
S_2172039401 0.013 0.1 0.05 0.05 25 OUTLET
S_2172039402 0.013 0.1 0.05 0.05 25 OUTLET
S_2172039403 0.013 0.1 0.05 0.05 25 OUTLET
S_2172039404 0.013 0.1 0.05 0.05 25 OUTLET
S_2172039405 0.013 0.1 0.05 0.05 25 OUTLET
S_2172039407 0.013 0.1 0.05 0.05 25 OUTLET
S_2172039501 0.013 0.1 0.05 0.05 25 OUTLET
S_2172039502 0.013 0.1 0.05 0.05 25 OUTLET
S_2172039503 0.013 0.1 0.05 0.05 25 OUTLET
S_2172039504 0.013 0.1 0.05 0.05 25 OUTLET
S_2172039506 0.013 0.1 0.05 0.05 25 OUTLET
S_2172039507 0.013 0.1 0.05 0.05 25 OUTLET
S_2172039508 0.013 0.1 0.05 0.05 25 OUTLET
S_2172039703 0.013 0.1 0.05 0.05 25 OUTLET
S_2172039704 0.013 0.1 0.05 0.05 25 OUTLET
S_2172039705 0.013 0.1 0.05 0.05 25 OUTLET
S_2172039706 0.013 0.1 0.05 0.05 25 OUTLET
S_2172040701 0.013 0.1 0.05 0.05 25 OUTLET
S_2172040702 0.013 0.1 0.05 0.05 25 OUTLET
S_2172040802 0.013 0.1 0.05 0.05 25 OUTLET
S_2172041709 0.013 0.1 0.05 0.05 25 OUTLET
S_2172041802 0.013 0.1 0.05 0.05 25 OUTLET
S_2172041902 0.013 0.1 0.05 0.05 25 OUTLET
S_2172041903 0.013 0.1 0.05 0.05 25 OUTLET
S_2172041905 0.013 0.1 0.05 0.05 25 OUTLET
S_2172041907 0.013 0.1 0.05 0.05 25 OUTLET
S_2172042301_ 0.013 0.1 0.05 0.05 25 OUTLET
S_2172042302_ 0.013 0.1 0.05 0.05 25 OUTLET
S_2172042401_ 0.013 0.1 0.05 0.05 25 OUTLET
S_2172042402 0.013 0.1 0.05 0.05 25 OUTLET
S_2172042403 0.013 0.1 0.05 0.05 25 OUTLET
S_2172042604 0.013 0.1 0.05 0.05 25 OUTLET
S_2172042605 0.013 0.1 0.05 0.05 25 OUTLET
S_2172042701 0.013 0.1 0.05 0.05 25 OUTLET
S_2172042702 0.013 0.1 0.05 0.05 25 OUTLET
S_2172042802 0.013 0.1 0.05 0.05 25 OUTLET
S_2172042901 0.013 0.1 0.05 0.05 25 OUTLET
S_2172042902 0.013 0.1 0.05 0.05 25 OUTLET
S_2172043301 0.013 0.1 0.05 0.05 25 OUTLET
S_2172043401 0.013 0.1 0.05 0.05 25 OUTLET
S_2172043401_ 0.013 0.1 0.05 0.05 25 OUTLET
S_2172043501 0.013 0.1 0.05 0.05 25 OUTLET
S_2172043502 0.013 0.1 0.05 0.05 25 OUTLET
S_2172043503 0.013 0.1 0.05 0.05 25 OUTLET
S_2172043504 0.013 0.1 0.05 0.05 25 OUTLET
S_2172043505 0.013 0.1 0.05 0.05 25 OUTLET
S_2172043506 0.013 0.1 0.05 0.05 25 OUTLET
S_2172043507 0.013 0.1 0.05 0.05 25 OUTLET
S_2172043508 0.013 0.1 0.05 0.05 25 OUTLET
S_2172043602 0.013 0.1 0.05 0.05 25 OUTLET
S_2172043603 0.013 0.1 0.05 0.05 25 OUTLET
S_2172043604 0.013 0.1 0.05 0.05 25 OUTLET
S_2172043605 0.013 0.1 0.05 0.05 25 OUTLET
S_2172043606 0.013 0.1 0.05 0.05 25 OUTLET
S_2172043607 0.013 0.1 0.05 0.05 25 OUTLET
S_2172043701 0.013 0.1 0.05 0.05 25 OUTLET
S_2172043702 0.013 0.1 0.05 0.05 25 OUTLET
S_2172043703 0.013 0.1 0.05 0.05 25 OUTLET
S_2172043704 0.013 0.1 0.05 0.05 25 OUTLET
S_2172043705 0.013 0.1 0.05 0.05 25 OUTLET
S_2172043706 0.013 0.1 0.05 0.05 25 OUTLET
S_2172043801 0.013 0.1 0.05 0.05 25 OUTLET
S_2172043802 0.013 0.1 0.05 0.05 25 OUTLET
S_2172043803 0.013 0.1 0.05 0.05 25 OUTLET
S_2172043804 0.013 0.1 0.05 0.05 25 OUTLET
S_2172043904 0.013 0.1 0.05 0.05 25 OUTLET
S_2172043905 0.013 0.1 0.05 0.05 25 OUTLET
S_2172043906 0.013 0.1 0.05 0.05 25 OUTLET
S_2172043907 0.013 0.1 0.05 0.05 25 OUTLET
S_2172044002 0.013 0.1 0.05 0.05 25 OUTLET
S_2172044103 0.013 0.1 0.05 0.05 25 OUTLET
S_2172044401 0.013 0.1 0.05 0.05 25 OUTLET
S_2172044402 0.013 0.1 0.05 0.05 25 OUTLET
S_2172044403 0.013 0.1 0.05 0.05 25 OUTLET
S_2172044601 0.013 0.1 0.05 0.05 25 OUTLET
S_2172044602 0.013 0.1 0.05 0.05 25 OUTLET
S_2172044603 0.013 0.1 0.05 0.05 25 OUTLET
S_2172044604 0.013 0.1 0.05 0.05 25 OUTLET
S_2172044605 0.013 0.1 0.05 0.05 25 OUTLET
S_2172044606 0.013 0.1 0.05 0.05 25 OUTLET
S_2172044607 0.013 0.1 0.05 0.05 25 OUTLET
S_2172044701 0.013 0.1 0.05 0.05 25 OUTLET
S_2172044702 0.013 0.1 0.05 0.05 25 OUTLET
S_2172044703 0.013 0.1 0.05 0.05 25 OUTLET
S_2172044704 0.013 0.1 0.05 0.05 25 OUTLET
S_2172044705 0.013 0.1 0.05 0.05 25 OUTLET
S_2172044706 0.013 0.1 0.05 0.05 25 OUTLET
S_2172044707 0.013 0.1 0.05 0.05 25 OUTLET
S_2172044902 0.013 0.1 0.05 0.05 25 OUTLET
S_2172044903 0.013 0.1 0.05 0.05 25 OUTLET
S_2172044905 0.013 0.1 0.05 0.05 25 OUTLET
S_2172044909 0.013 0.1 0.05 0.05 25 OUTLET
S_2172044910 0.013 0.1 0.05 0.05 25 OUTLET
S_2172045001 0.013 0.1 0.05 0.05 25 OUTLET
S_2172045002 0.013 0.1 0.05 0.05 25 OUTLET
S_2172045003 0.013 0.1 0.05 0.05 25 OUTLET
S_2172045701 0.013 0.1 0.05 0.05 25 OUTLET
S_2172045702 0.013 0.1 0.05 0.05 25 OUTLET
S_2172045704 0.013 0.1 0.05 0.05 25 OUTLET
S_2172045801 0.013 0.1 0.05 0.05 25 OUTLET
S_2172045802 0.013 0.1 0.05 0.05 25 OUTLET
S_2172045803 0.013 0.1 0.05 0.05 25 OUTLET
S_2172045804 0.013 0.1 0.05 0.05 25 OUTLET
S_2172045805 0.013 0.1 0.05 0.05 25 OUTLET
S_2172045806 0.013 0.1 0.05 0.05 25 OUTLET
S_2172045807 0.013 0.1 0.05 0.05 25 OUTLET
S_2172045808 0.013 0.1 0.05 0.05 25 OUTLET
S_2172045809 0.013 0.1 0.05 0.05 25 OUTLET
S_2172045810 0.013 0.1 0.05 0.05 25 OUTLET
S_2172045902 0.013 0.1 0.05 0.05 25 OUTLET
S_2172045904 0.013 0.1 0.05 0.05 25 OUTLET
S_2172045905 0.013 0.1 0.05 0.05 25 OUTLET
S_2172046001 0.013 0.1 0.05 0.05 25 OUTLET
S_2172046002 0.013 0.1 0.05 0.05 25 OUTLET
S_2172046003 0.013 0.1 0.05 0.05 25 OUTLET
S_2172046004 0.013 0.1 0.05 0.05 25 OUTLET
S_2172046005 0.013 0.1 0.05 0.05 25 OUTLET
S_2172046801_ 0.013 0.1 0.05 0.05 25 OUTLET
S_2172046802_ 0.013 0.1 0.05 0.05 25 OUTLET
S_2172046803_ 0.013 0.1 0.05 0.05 25 OUTLET
S_2172046804 0.013 0.1 0.05 0.05 25 OUTLET
S_2172046805 0.013 0.1 0.05 0.05 25 OUTLET
S_2172046806 0.013 0.1 0.05 0.05 25 OUTLET
S_2172046901 0.013 0.1 0.05 0.05 25 OUTLET
S_2172046902 0.013 0.1 0.05 0.05 25 OUTLET
S_2172046903 0.013 0.1 0.05 0.05 25 OUTLET
S_2172046904 0.013 0.1 0.05 0.05 25 OUTLET
S_2172046905 0.013 0.1 0.05 0.05 25 OUTLET
S_2172047001 0.013 0.1 0.05 0.05 25 OUTLET
S_2172047101 0.013 0.1 0.05 0.05 25 OUTLET
S_2172047102 0.013 0.1 0.05 0.05 25 OUTLET
S_2172047103 0.013 0.1 0.05 0.05 25 OUTLET
S_2172047104 0.013 0.1 0.05 0.05 25 OUTLET
S_2172047202 0.013 0.1 0.05 0.05 25 OUTLET
S_2172047204 0.013 0.1 0.05 0.05 25 OUTLET
S_2172047403 0.013 0.1 0.05 0.05 25 OUTLET
S_2172048101 0.013 0.1 0.05 0.05 25 OUTLET
S_2172048201 0.013 0.1 0.05 0.05 25 OUTLET
S_2172048202 0.013 0.1 0.05 0.05 25 OUTLET
S_2172048203 0.013 0.1 0.05 0.05 25 OUTLET
S_2172048304 0.013 0.1 0.05 0.05 25 OUTLET
S_2172048305 0.013 0.1 0.05 0.05 25 OUTLET
S_2172048306 0.013 0.1 0.05 0.05 25 OUTLET
S_2172048307 0.013 0.1 0.05 0.05 25 OUTLET
S_2172048401 0.013 0.1 0.05 0.05 25 OUTLET
S_2172048403 0.013 0.1 0.05 0.05 25 OUTLET
S_2172048405 0.013 0.1 0.05 0.05 25 OUTLET
S_2172048407 0.013 0.1 0.05 0.05 25 OUTLET
S_2172048408 0.013 0.1 0.05 0.05 25 OUTLET
S_2172049003 0.013 0.1 0.05 0.05 25 OUTLET
S_2172049301 0.013 0.1 0.05 0.05 25 OUTLET
S_2172049302 0.013 0.1 0.05 0.05 25 OUTLET
S_2172049303 0.013 0.1 0.05 0.05 25 OUTLET
S_2172049304 0.013 0.1 0.05 0.05 25 OUTLET
S_2172049401 0.013 0.1 0.05 0.05 25 OUTLET
S_2172049402 0.013 0.1 0.05 0.05 25 OUTLET
S_2172049403 0.013 0.1 0.05 0.05 25 OUTLET
S_2172049502 0.013 0.1 0.05 0.05 25 OUTLET
S_2172051102 0.013 0.1 0.05 0.05 25 OUTLET
S_2172051103 0.013 0.1 0.05 0.05 25 OUTLET
S_2172052101 0.013 0.1 0.05 0.05 25 OUTLET
S_2172052102 0.013 0.1 0.05 0.05 25 OUTLET
S_2172052103 0.013 0.1 0.05 0.05 25 OUTLET
S_2172052105 0.013 0.1 0.05 0.05 25 OUTLET
S_2172052106 0.013 0.1 0.05 0.05 25 OUTLET
S_2172052107 0.013 0.1 0.05 0.05 25 OUTLET
S_2172052108 0.013 0.1 0.05 0.05 25 OUTLET
S_2172052109 0.013 0.1 0.05 0.05 25 OUTLET
S_2172052110 0.013 0.1 0.05 0.05 25 OUTLET
S_2172052111 0.013 0.1 0.05 0.05 25 OUTLET
S_2172052112 0.013 0.1 0.05 0.05 25 OUTLET
S_2172052114 0.013 0.1 0.05 0.05 25 OUTLET
S_2172052201 0.013 0.1 0.05 0.05 25 OUTLET
S_2172052202 0.013 0.1 0.05 0.05 25 OUTLET
S_2172053201 0.013 0.1 0.05 0.05 25 OUTLET
S_2172053203 0.013 0.1 0.05 0.05 25 OUTLET
S_2172053204 0.013 0.1 0.05 0.05 25 OUTLET
S_2172053503 0.013 0.1 0.05 0.05 25 OUTLET
S_2172053602 0.013 0.1 0.05 0.05 25 OUTLET
S_2172054407 0.013 0.1 0.05 0.05 25 OUTLET
S_2172054409 0.013 0.1 0.05 0.05 25 OUTLET
S_2172054410 0.013 0.1 0.05 0.05 25 OUTLET
S_2172054501 0.013 0.1 0.05 0.05 25 OUTLET
S_2172054502 0.013 0.1 0.05 0.05 25 OUTLET
S_2172054503 0.013 0.1 0.05 0.05 25 OUTLET
S_2172054504 0.013 0.1 0.05 0.05 25 OUTLET
S_2172054506 0.013 0.1 0.05 0.05 25 OUTLET
S_2172055101 0.013 0.1 0.05 0.05 25 OUTLET
S_2172055701_ 0.013 0.1 0.05 0.05 25 OUTLET
S_2172056101 0.013 0.1 0.05 0.05 25 OUTLET
S_2172056102 0.013 0.1 0.05 0.05 25 OUTLET
S_2172056302 0.013 0.1 0.05 0.05 25 OUTLET
S_2172056305 0.013 0.1 0.05 0.05 25 OUTLET
S_2172056306 0.013 0.1 0.05 0.05 25 OUTLET
S_2172056403 0.013 0.1 0.05 0.05 25 OUTLET
S_2172056404 0.013 0.1 0.05 0.05 25 OUTLET
S_2172056405 0.013 0.1 0.05 0.05 25 OUTLET
S_2172056406 0.013 0.1 0.05 0.05 25 OUTLET
S_2172056501 0.013 0.1 0.05 0.05 25 OUTLET
S_2172056502 0.013 0.1 0.05 0.05 25 OUTLET
S_2172056503 0.013 0.1 0.05 0.05 25 OUTLET
S_2172056601 0.013 0.1 0.05 0.05 25 OUTLET
S_2172056601_ 0.013 0.1 0.05 0.05 25 OUTLET
S_2172056602 0.013 0.1 0.05 0.05 25 OUTLET
S_2172056602_ 0.013 0.1 0.05 0.05 25 OUTLET
S_2172056603 0.013 0.1 0.05 0.05 25 OUTLET
S_2172056603_ 0.013 0.1 0.05 0.05 25 OUTLET
S_2172057001 0.013 0.1 0.05 0.05 25 OUTLET
S_2172057002 0.013 0.1 0.05 0.05 25 OUTLET
S_2172057003 0.013 0.1 0.05 0.05 25 OUTLET
S_2172057004 0.013 0.1 0.05 0.05 25 OUTLET
S_2172057005 0.013 0.1 0.05 0.05 25 OUTLET
S_2172057101 0.013 0.1 0.05 0.05 25 OUTLET
S_2172057105 0.013 0.1 0.05 0.05 25 OUTLET
S_2172057301 0.013 0.1 0.05 0.05 25 OUTLET
S_2172057302 0.013 0.1 0.05 0.05 25 OUTLET
S_2172057305 0.013 0.1 0.05 0.05 25 OUTLET
S_2172057306 0.013 0.1 0.05 0.05 25 OUTLET
S_2172057307 0.013 0.1 0.05 0.05 25 OUTLET
S_2172057309 0.013 0.1 0.05 0.05 25 OUTLET
S_2172057402 0.013 0.1 0.05 0.05 25 OUTLET
S_2172057403 0.013 0.1 0.05 0.05 25 OUTLET
S_2172057404 0.013 0.1 0.05 0.05 25 OUTLET
S_2172057406 0.013 0.1 0.05 0.05 25 OUTLET
S_2172057501 0.013 0.1 0.05 0.05 25 OUTLET
S_2172057502 0.013 0.1 0.05 0.05 25 OUTLET
S_2172057601 0.013 0.1 0.05 0.05 25 OUTLET
S_2172057602 0.013 0.1 0.05 0.05 25 OUTLET
S_2172057603 0.013 0.1 0.05 0.05 25 OUTLET
S_2172058102 0.013 0.1 0.05 0.05 25 OUTLET
S_2172058401 0.013 0.1 0.05 0.05 25 OUTLET
S_2172058402 0.013 0.1 0.05 0.05 25 OUTLET
S_2172058403 0.013 0.1 0.05 0.05 25 OUTLET
S_2172058501 0.013 0.1 0.05 0.05 25 OUTLET
S_2172058502 0.013 0.1 0.05 0.05 25 OUTLET
S_2172058503 0.013 0.1 0.05 0.05 25 OUTLET
S_2172058602 0.013 0.1 0.05 0.05 25 OUTLET
S_2172058603 0.013 0.1 0.05 0.05 25 OUTLET
S_2172058604 0.013 0.1 0.05 0.05 25 OUTLET
S_2172058605 0.013 0.1 0.05 0.05 25 OUTLET
S_2172058606 0.013 0.1 0.05 0.05 25 OUTLET
S_2172058607 0.013 0.1 0.05 0.05 25 OUTLET
S_2172058608 0.013 0.1 0.05 0.05 25 OUTLET
S_2172059301 0.013 0.1 0.05 0.05 25 OUTLET
S_2172059302 0.013 0.1 0.05 0.05 25 OUTLET
S_2172059303 0.013 0.1 0.05 0.05 25 OUTLET
S_2172059402 0.013 0.1 0.05 0.05 25 OUTLET
S_2172059404 0.013 0.1 0.05 0.05 25 OUTLET
S_2172059405 0.013 0.1 0.05 0.05 25 OUTLET
S_2172059406 0.013 0.1 0.05 0.05 25 OUTLET
S_2172059501 0.013 0.1 0.05 0.05 25 OUTLET
S_2172059502 0.013 0.1 0.05 0.05 25 OUTLET
S_2172059503 0.013 0.1 0.05 0.05 25 OUTLET
S_2172059504 0.013 0.1 0.05 0.05 25 OUTLET
S_2172059604 0.013 0.1 0.05 0.05 25 OUTLET
S_2172059703 0.013 0.1 0.05 0.05 25 OUTLET
S_2173030105 0.013 0.1 0.05 0.05 25 OUTLET
S_2173030301 0.013 0.1 0.05 0.05 25 OUTLET
S_2173030302 0.013 0.1 0.05 0.05 25 OUTLET
S_2173030303 0.013 0.1 0.05 0.05 25 OUTLET
S_2173030304 0.013 0.1 0.05 0.05 25 OUTLET
S_2173030403 0.013 0.1 0.05 0.05 25 OUTLET
S_2173030405 0.013 0.1 0.05 0.05 25 OUTLET
S_2173030501 0.013 0.1 0.05 0.05 25 OUTLET
S_2173030502 0.013 0.1 0.05 0.05 25 OUTLET
S_2173030503 0.013 0.1 0.05 0.05 25 OUTLET
S_2173030504 0.013 0.1 0.05 0.05 25 OUTLET
S_2173030505 0.013 0.1 0.05 0.05 25 OUTLET
S_2173030506 0.013 0.1 0.05 0.05 25 OUTLET
S_2173030507 0.013 0.1 0.05 0.05 25 OUTLET
S_2173030601 0.013 0.1 0.05 0.05 25 OUTLET
S_2173030602 0.013 0.1 0.05 0.05 25 OUTLET
S_2173030603 0.013 0.1 0.05 0.05 25 OUTLET
S_2173030604 0.013 0.1 0.05 0.05 25 OUTLET
S_2173030605 0.013 0.1 0.05 0.05 25 OUTLET
S_2173030606 0.013 0.1 0.05 0.05 25 OUTLET
S_2173030607 0.013 0.1 0.05 0.05 25 OUTLET
S_2173030608 0.013 0.1 0.05 0.05 25 OUTLET
S_2173030701 0.013 0.1 0.05 0.05 25 OUTLET
S_2173030702 0.013 0.1 0.05 0.05 25 OUTLET
S_2173030703 0.013 0.1 0.05 0.05 25 OUTLET
S_2173030704 0.013 0.1 0.05 0.05 25 OUTLET
S_2173030705 0.013 0.1 0.05 0.05 25 OUTLET
S_2173030706 0.013 0.1 0.05 0.05 25 OUTLET
S_2173030801 0.013 0.1 0.05 0.05 25 OUTLET
S_2173030901 0.013 0.1 0.05 0.05 25 OUTLET
S_2173030902 0.013 0.1 0.05 0.05 25 OUTLET
S_2173031302 0.013 0.1 0.05 0.05 25 OUTLET
S_2173031304 0.013 0.1 0.05 0.05 25 OUTLET
S_2173031305 0.013 0.1 0.05 0.05 25 OUTLET
S_2173031306 0.013 0.1 0.05 0.05 25 OUTLET
S_2173031307 0.013 0.1 0.05 0.05 25 OUTLET
S_2173031308 0.013 0.1 0.05 0.05 25 OUTLET
S_2173031401 0.013 0.1 0.05 0.05 25 OUTLET
S_2173031402 0.013 0.1 0.05 0.05 25 OUTLET
S_2173031403 0.013 0.1 0.05 0.05 25 OUTLET
S_2173031404 0.013 0.1 0.05 0.05 25 OUTLET
S_2173031501 0.013 0.1 0.05 0.05 25 OUTLET
S_2173031505 0.013 0.1 0.05 0.05 25 OUTLET
S_2173031601 0.013 0.1 0.05 0.05 25 OUTLET
S_2173031701 0.013 0.1 0.05 0.05 25 OUTLET
S_2173031702 0.013 0.1 0.05 0.05 25 OUTLET
S_2173031703 0.013 0.1 0.05 0.05 25 OUTLET
S_2173031704 0.013 0.1 0.05 0.05 25 OUTLET
S_2173031705 0.013 0.1 0.05 0.05 25 OUTLET
S_2173031706 0.013 0.1 0.05 0.05 25 OUTLET
S_2173031707 0.013 0.1 0.05 0.05 25 OUTLET
S_2173031708 0.013 0.1 0.05 0.05 25 OUTLET
S_2173031801 0.013 0.1 0.05 0.05 25 OUTLET
S_2173031802 0.013 0.1 0.05 0.05 25 OUTLET
S_2173031803 0.013 0.1 0.05 0.05 25 OUTLET
S_2173031804 0.013 0.1 0.05 0.05 25 OUTLET
S_2173031805 0.013 0.1 0.05 0.05 25 OUTLET
S_2173031806 0.013 0.1 0.05 0.05 25 OUTLET
S_2173031807 0.013 0.1 0.05 0.05 25 OUTLET
S_2173031901 0.013 0.1 0.05 0.05 25 OUTLET
S_2173031902 0.013 0.1 0.05 0.05 25 OUTLET
S_2173031903 0.013 0.1 0.05 0.05 25 OUTLET
S_2173032201 0.013 0.1 0.05 0.05 25 OUTLET
S_2173032202 0.013 0.1 0.05 0.05 25 OUTLET
S_2173032205 0.013 0.1 0.05 0.05 25 OUTLET
S_2173032206 0.013 0.1 0.05 0.05 25 OUTLET
S_2173032207 0.013 0.1 0.05 0.05 25 OUTLET
S_2173032401 0.013 0.1 0.05 0.05 25 OUTLET
S_2173032801_ 0.013 0.1 0.05 0.05 25 OUTLET
S_2173033201 0.013 0.1 0.05 0.05 25 OUTLET
S_2173033202 0.013 0.1 0.05 0.05 25 OUTLET
S_2173033204 0.013 0.1 0.05 0.05 25 OUTLET
S_2173033207 0.013 0.1 0.05 0.05 25 OUTLET
S_2173033301 0.013 0.1 0.05 0.05 25 OUTLET
S_2173033302 0.013 0.1 0.05 0.05 25 OUTLET
S_2173033303 0.013 0.1 0.05 0.05 25 OUTLET
S_2173033402 0.013 0.1 0.05 0.05 25 OUTLET
S_2173033404 0.013 0.1 0.05 0.05 25 OUTLET
S_2173033501 0.013 0.1 0.05 0.05 25 OUTLET
S_2173033601 0.013 0.1 0.05 0.05 25 OUTLET
S_2173033602 0.013 0.1 0.05 0.05 25 OUTLET
S_2173033603 0.013 0.1 0.05 0.05 25 OUTLET
S_2173033604 0.013 0.1 0.05 0.05 25 OUTLET
S_2173033605 0.013 0.1 0.05 0.05 25 OUTLET
S_2173034201 0.013 0.1 0.05 0.05 25 OUTLET
S_2173034202 0.013 0.1 0.05 0.05 25 OUTLET
S_2173034203 0.013 0.1 0.05 0.05 25 OUTLET
S_2173034204 0.013 0.1 0.05 0.05 25 OUTLET
S_2173034205 0.013 0.1 0.05 0.05 25 OUTLET
S_2173034302 0.013 0.1 0.05 0.05 25 OUTLET
S_2173034303 0.013 0.1 0.05 0.05 25 OUTLET
S_2173034501 0.013 0.1 0.05 0.05 25 OUTLET
S_2173034502 0.013 0.1 0.05 0.05 25 OUTLET
S_2173034503 0.013 0.1 0.05 0.05 25 OUTLET
S_2173035301 0.013 0.1 0.05 0.05 25 OUTLET
S_2173035401 0.013 0.1 0.05 0.05 25 OUTLET
S_2173035401_ 0.013 0.1 0.05 0.05 25 OUTLET
S_2173035402 0.013 0.1 0.05 0.05 25 OUTLET
S_2173035501 0.013 0.1 0.05 0.05 25 OUTLET
S_2173035502 0.013 0.1 0.05 0.05 25 OUTLET
S_2173036501 0.013 0.1 0.05 0.05 25 OUTLET
S_2173036502 0.013 0.1 0.05 0.05 25 OUTLET
S_2173036503 0.013 0.1 0.05 0.05 25 OUTLET
S_2173036601_ 0.013 0.1 0.05 0.05 25 OUTLET
S_2173036602 0.013 0.1 0.05 0.05 25 OUTLET
S_2173036603 0.013 0.1 0.05 0.05 25 OUTLET
S_2173036604 0.013 0.1 0.05 0.05 25 OUTLET
S_2173036701 0.013 0.1 0.05 0.05 25 OUTLET
S_2173036702 0.013 0.1 0.05 0.05 25 OUTLET
S_2173036703 0.013 0.1 0.05 0.05 25 OUTLET
S_2173037801 0.013 0.1 0.05 0.05 25 OUTLET
S_2173037802 0.013 0.1 0.05 0.05 25 OUTLET
S_2173037901 0.013 0.1 0.05 0.05 25 OUTLET
S_2173038801 0.013 0.1 0.05 0.05 25 OUTLET
S_2173038901 0.013 0.1 0.05 0.05 25 OUTLET
S_2173038902 0.013 0.1 0.05 0.05 25 OUTLET
S_2173038903 0.013 0.1 0.05 0.05 25 OUTLET
S_2173038904 0.013 0.1 0.05 0.05 25 OUTLET
S_2173038905 0.013 0.1 0.05 0.05 25 OUTLET
S_2173039901 0.013 0.1 0.05 0.05 25 OUTLET
S_2173040001 0.013 0.1 0.05 0.05 25 OUTLET
S_2173040002 0.013 0.1 0.05 0.05 25 OUTLET
S_2173040101 0.013 0.1 0.05 0.05 25 OUTLET
S_2173040102 0.013 0.1 0.05 0.05 25 OUTLET
S_2173040501 0.013 0.1 0.05 0.05 25 OUTLET
S_2173041101 0.013 0.1 0.05 0.05 25 OUTLET
S_2173041102 0.013 0.1 0.05 0.05 25 OUTLET
S_2173041103 0.013 0.1 0.05 0.05 25 OUTLET
S_2173041104 0.013 0.1 0.05 0.05 25 OUTLET
S_2173041105 0.013 0.1 0.05 0.05 25 OUTLET
S_2173041201 0.013 0.1 0.05 0.05 25 OUTLET
S_2173041202 0.013 0.1 0.05 0.05 25 OUTLET
S_2173041401 0.013 0.1 0.05 0.05 25 OUTLET
S_2173041501 0.013 0.1 0.05 0.05 25 OUTLET
S_2173041502 0.013 0.1 0.05 0.05 25 OUTLET
S_2173041601 0.013 0.1 0.05 0.05 25 OUTLET
S_2173042001 0.013 0.1 0.05 0.05 25 OUTLET
S_2173042101 0.013 0.1 0.05 0.05 25 OUTLET
S_2173042302 0.013 0.1 0.05 0.05 25 OUTLET
S_2173042401 0.013 0.1 0.05 0.05 25 OUTLET
S_2173042403 0.013 0.1 0.05 0.05 25 OUTLET
S_2173042406 0.013 0.1 0.05 0.05 25 OUTLET
S_2173042601 0.013 0.1 0.05 0.05 25 OUTLET
S_2173042701 0.013 0.1 0.05 0.05 25 OUTLET
S_2173042801 0.013 0.1 0.05 0.05 25 OUTLET
S_2173042802 0.013 0.1 0.05 0.05 25 OUTLET
S_2173043003 0.013 0.1 0.05 0.05 25 OUTLET
S_2173043005 0.013 0.1 0.05 0.05 25 OUTLET
S_2173043203 0.013 0.1 0.05 0.05 25 OUTLET
S_2173043301 0.013 0.1 0.05 0.05 25 OUTLET
S_2173043302 0.013 0.1 0.05 0.05 25 OUTLET
S_2173043303 0.013 0.1 0.05 0.05 25 OUTLET
S_2173043304 0.013 0.1 0.05 0.05 25 OUTLET
S_2173043305 0.013 0.1 0.05 0.05 25 OUTLET
S_2173043401 0.013 0.1 0.05 0.05 25 OUTLET
S_2173043402 0.013 0.1 0.05 0.05 25 OUTLET
S_2173043403 0.013 0.1 0.05 0.05 25 OUTLET
S_2173043404 0.013 0.1 0.05 0.05 25 OUTLET
S_2173043405 0.013 0.1 0.05 0.05 25 OUTLET
S_2173043406 0.013 0.1 0.05 0.05 25 OUTLET
S_2173043504 0.013 0.1 0.05 0.05 25 OUTLET
S_2173043506 0.013 0.1 0.05 0.05 25 OUTLET
S_2173043601 0.013 0.1 0.05 0.05 25 OUTLET
S_2173043901 0.013 0.1 0.05 0.05 25 OUTLET
S_2173043902 0.013 0.1 0.05 0.05 25 OUTLET
S_2173044101 0.013 0.1 0.05 0.05 25 OUTLET
S_2173044102 0.013 0.1 0.05 0.05 25 OUTLET
S_2173044103 0.013 0.1 0.05 0.05 25 OUTLET
S_2173044106 0.013 0.1 0.05 0.05 25 OUTLET
S_2173044201 0.013 0.1 0.05 0.05 25 OUTLET
S_2173044202 0.013 0.1 0.05 0.05 25 OUTLET
S_2173044203 0.013 0.1 0.05 0.05 25 OUTLET
S_2173044204 0.013 0.1 0.05 0.05 25 OUTLET
S_2173044301 0.013 0.1 0.05 0.05 25 OUTLET
S_2173044302 0.013 0.1 0.05 0.05 25 OUTLET
S_2173044303 0.013 0.1 0.05 0.05 25 OUTLET
S_2173044304 0.013 0.1 0.05 0.05 25 OUTLET
S_2173044305 0.013 0.1 0.05 0.05 25 OUTLET
S_2173044306 0.013 0.1 0.05 0.05 25 OUTLET
S_2173044401 0.013 0.1 0.05 0.05 25 OUTLET
S_2173044402 0.013 0.1 0.05 0.05 25 OUTLET
S_2173044403 0.013 0.1 0.05 0.05 25 OUTLET
S_2173044404 0.013 0.1 0.05 0.05 25 OUTLET
S_2173044405 0.013 0.1 0.05 0.05 25 OUTLET
S_2173044406 0.013 0.1 0.05 0.05 25 OUTLET
S_2173044502 0.013 0.1 0.05 0.05 25 OUTLET
S_2173044504 0.013 0.1 0.05 0.05 25 OUTLET
S_2173044505 0.013 0.1 0.05 0.05 25 OUTLET
S_2173044506 0.013 0.1 0.05 0.05 25 OUTLET
S_2173044507 0.013 0.1 0.05 0.05 25 OUTLET
S_2173044601 0.013 0.1 0.05 0.05 25 OUTLET
S_2173044602 0.013 0.1 0.05 0.05 25 OUTLET
S_2173045101 0.013 0.1 0.05 0.05 25 OUTLET
S_2173045102 0.013 0.1 0.05 0.05 25 OUTLET
S_2173045103 0.013 0.1 0.05 0.05 25 OUTLET
S_2173045104 0.013 0.1 0.05 0.05 25 OUTLET
S_2173045105 0.013 0.1 0.05 0.05 25 OUTLET
S_2173045201 0.013 0.1 0.05 0.05 25 OUTLET
S_2173045202 0.013 0.1 0.05 0.05 25 OUTLET
S_2173045203 0.013 0.1 0.05 0.05 25 OUTLET
S_2173045204 0.013 0.1 0.05 0.05 25 OUTLET
S_2173045205 0.013 0.1 0.05 0.05 25 OUTLET
S_2173045210 0.013 0.1 0.05 0.05 25 OUTLET
S_2173045301 0.013 0.1 0.05 0.05 25 OUTLET
S_2173045302 0.013 0.1 0.05 0.05 25 OUTLET
S_2173045303 0.013 0.1 0.05 0.05 25 OUTLET
S_2173045304 0.013 0.1 0.05 0.05 25 OUTLET
S_2173045305 0.013 0.1 0.05 0.05 25 OUTLET
S_2173045306 0.013 0.1 0.05 0.05 25 OUTLET
S_2173045401 0.013 0.1 0.05 0.05 25 OUTLET
S_2173045402 0.013 0.1 0.05 0.05 25 OUTLET
S_2173045501 0.013 0.1 0.05 0.05 25 OUTLET
S_2173045502 0.013 0.1 0.05 0.05 25 OUTLET
S_2173045503 0.013 0.1 0.05 0.05 25 OUTLET
S_2173045504 0.013 0.1 0.05 0.05 25 OUTLET
S_2173045505 0.013 0.1 0.05 0.05 25 OUTLET
S_2173045603 0.013 0.1 0.05 0.05 25 OUTLET
S_2173045604 0.013 0.1 0.05 0.05 25 OUTLET
S_2173045901 0.013 0.1 0.05 0.05 25 OUTLET
S_2173046104 0.013 0.1 0.05 0.05 25 OUTLET
S_2173046106 0.013 0.1 0.05 0.05 25 OUTLET
S_2173046203 0.013 0.1 0.05 0.05 25 OUTLET
S_2173046301 0.013 0.1 0.05 0.05 25 OUTLET
S_2173046401 0.013 0.1 0.05 0.05 25 OUTLET
S_2173046402 0.013 0.1 0.05 0.05 25 OUTLET
S_2173046403 0.013 0.1 0.05 0.05 25 OUTLET
S_2173046404 0.013 0.1 0.05 0.05 25 OUTLET
S_2173046405 0.013 0.1 0.05 0.05 25 OUTLET
S_2173046406 0.013 0.1 0.05 0.05 25 OUTLET
S_2173046409 0.013 0.1 0.05 0.05 25 OUTLET
S_2173046410 0.013 0.1 0.05 0.05 25 OUTLET
S_2173046412 0.013 0.1 0.05 0.05 25 OUTLET
S_2173046413 0.013 0.1 0.05 0.05 25 OUTLET
S_2173046414 0.013 0.1 0.05 0.05 25 OUTLET
S_2173046501 0.013 0.1 0.05 0.05 25 OUTLET
S_2173046601 0.013 0.1 0.05 0.05 25 OUTLET
S_2173046602 0.013 0.1 0.05 0.05 25 OUTLET
S_2173046603 0.013 0.1 0.05 0.05 25 OUTLET
S_2173046707 0.013 0.1 0.05 0.05 25 OUTLET
S_2173046709 0.013 0.1 0.05 0.05 25 OUTLET
S_2173046901 0.013 0.1 0.05 0.05 25 OUTLET
S_2173046902 0.013 0.1 0.05 0.05 25 OUTLET
S_2173047001 0.013 0.1 0.05 0.05 25 OUTLET
S_2173047002 0.013 0.1 0.05 0.05 25 OUTLET
S_2173047003 0.013 0.1 0.05 0.05 25 OUTLET
S_2173047004 0.013 0.1 0.05 0.05 25 OUTLET
S_2173047005 0.013 0.1 0.05 0.05 25 OUTLET
S_2173047101 0.013 0.1 0.05 0.05 25 OUTLET
S_2173047102 0.013 0.1 0.05 0.05 25 OUTLET
S_2173047103 0.013 0.1 0.05 0.05 25 OUTLET
S_2173047104 0.013 0.1 0.05 0.05 25 OUTLET
S_2173047105 0.013 0.1 0.05 0.05 25 OUTLET
S_2173047301 0.013 0.1 0.05 0.05 25 OUTLET
S_2173047302 0.013 0.1 0.05 0.05 25 OUTLET
S_2173047402 0.013 0.1 0.05 0.05 25 OUTLET
S_2173047501 0.013 0.1 0.05 0.05 25 OUTLET
S_2173047502 0.013 0.1 0.05 0.05 25 OUTLET
S_2173047503 0.013 0.1 0.05 0.05 25 OUTLET
S_2173047504 0.013 0.1 0.05 0.05 25 OUTLET
S_2173047505 0.013 0.1 0.05 0.05 25 OUTLET
S_2173047506 0.013 0.1 0.05 0.05 25 OUTLET
S_2173047601 0.013 0.1 0.05 0.05 25 OUTLET
S_2173047602 0.013 0.1 0.05 0.05 25 OUTLET
S_2173047603 0.013 0.1 0.05 0.05 25 OUTLET
S_2173047604 0.013 0.1 0.05 0.05 25 OUTLET
S_2173047701 0.013 0.1 0.05 0.05 25 OUTLET
S_2173047702 0.013 0.1 0.05 0.05 25 OUTLET
S_2173047703 0.013 0.1 0.05 0.05 25 OUTLET
S_2173047704 0.013 0.1 0.05 0.05 25 OUTLET
S_2173047801 0.013 0.1 0.05 0.05 25 OUTLET
S_2173047802 0.013 0.1 0.05 0.05 25 OUTLET
S_2173047803 0.013 0.1 0.05 0.05 25 OUTLET
S_2173047804 0.013 0.1 0.05 0.05 25 OUTLET
S_2173047805 0.013 0.1 0.05 0.05 25 OUTLET
S_2173047902 0.013 0.1 0.05 0.05 25 OUTLET
S_2173047903 0.013 0.1 0.05 0.05 25 OUTLET
S_2173047904 0.013 0.1 0.05 0.05 25 OUTLET
S_2173048001 0.013 0.1 0.05 0.05 25 OUTLET
S_2173048002 0.013 0.1 0.05 0.05 25 OUTLET
S_2173048003 0.013 0.1 0.05 0.05 25 OUTLET
S_2173048004 0.013 0.1 0.05 0.05 25 OUTLET
S_2173048005 0.013 0.1 0.05 0.05 25 OUTLET
S_2173048006 0.013 0.1 0.05 0.05 25 OUTLET
S_2173048007 0.013 0.1 0.05 0.05 25 OUTLET
S_2173048008 0.013 0.1 0.05 0.05 25 OUTLET
S_2173048101 0.013 0.1 0.05 0.05 25 OUTLET
S_2173048102 0.013 0.1 0.05 0.05 25 OUTLET
S_2173048103 0.013 0.1 0.05 0.05 25 OUTLET
S_2173048104 0.013 0.1 0.05 0.05 25 OUTLET
S_2173048106 0.013 0.1 0.05 0.05 25 OUTLET
S_2173048201 0.013 0.1 0.05 0.05 25 OUTLET
S_2173048204 0.013 0.1 0.05 0.05 25 OUTLET
S_2173048303 0.013 0.1 0.05 0.05 25 OUTLET
S_2173048305 0.013 0.1 0.05 0.05 25 OUTLET
S_2173048403 0.013 0.1 0.05 0.05 25 OUTLET
S_2173048503 0.013 0.1 0.05 0.05 25 OUTLET
S_2173048601 0.013 0.1 0.05 0.05 25 OUTLET
S_2173048602 0.013 0.1 0.05 0.05 25 OUTLET
S_2173048603 0.013 0.1 0.05 0.05 25 OUTLET
S_2173048604 0.013 0.1 0.05 0.05 25 OUTLET
S_2173048701 0.013 0.1 0.05 0.05 25 OUTLET
S_2173048702 0.013 0.1 0.05 0.05 25 OUTLET
S_2173048703 0.013 0.1 0.05 0.05 25 OUTLET
S_2173048704 0.013 0.1 0.05 0.05 25 OUTLET
S_2173048705 0.013 0.1 0.05 0.05 25 OUTLET
S_2173048801 0.013 0.1 0.05 0.05 25 OUTLET
S_2173048802 0.013 0.1 0.05 0.05 25 OUTLET
S_2173048803 0.013 0.1 0.05 0.05 25 OUTLET
S_2173048901 0.013 0.1 0.05 0.05 25 OUTLET
S_2173048902 0.013 0.1 0.05 0.05 25 OUTLET
S_2173048903 0.013 0.1 0.05 0.05 25 OUTLET
S_2173048904 0.013 0.1 0.05 0.05 25 OUTLET
S_2173049001 0.013 0.1 0.05 0.05 25 OUTLET
S_2173049002 0.013 0.1 0.05 0.05 25 OUTLET
S_2173049201 0.013 0.1 0.05 0.05 25 OUTLET
S_2173049202 0.013 0.1 0.05 0.05 25 OUTLET
S_2173049203 0.013 0.1 0.05 0.05 25 OUTLET
S_2173049204 0.013 0.1 0.05 0.05 25 OUTLET
S_2173049205 0.013 0.1 0.05 0.05 25 OUTLET
S_2173049206 0.013 0.1 0.05 0.05 25 OUTLET
S_2173049207 0.013 0.1 0.05 0.05 25 OUTLET
S_2173049301 0.013 0.1 0.05 0.05 25 OUTLET
S_2173049302 0.013 0.1 0.05 0.05 25 OUTLET
S_2173049303 0.013 0.1 0.05 0.05 25 OUTLET
S_2173049304 0.013 0.1 0.05 0.05 25 OUTLET
S_2173049401 0.013 0.1 0.05 0.05 25 OUTLET
S_2173049402 0.013 0.1 0.05 0.05 25 OUTLET
S_2173049403 0.013 0.1 0.05 0.05 25 OUTLET
S_2173049404 0.013 0.1 0.05 0.05 25 OUTLET
S_2173049405 0.013 0.1 0.05 0.05 25 OUTLET
S_2173049501 0.013 0.1 0.05 0.05 25 OUTLET
S_2173049601 0.013 0.1 0.05 0.05 25 OUTLET
S_2173049602 0.013 0.1 0.05 0.05 25 OUTLET
S_2173049603 0.013 0.1 0.05 0.05 25 OUTLET
S_2173049701 0.013 0.1 0.05 0.05 25 OUTLET
S_2173049702 0.013 0.1 0.05 0.05 25 OUTLET
S_2173049801 0.013 0.1 0.05 0.05 25 OUTLET
S_2173049802 0.013 0.1 0.05 0.05 25 OUTLET
S_2173049803 0.013 0.1 0.05 0.05 25 OUTLET
S_2173049804 0.013 0.1 0.05 0.05 25 OUTLET
S_2173049805 0.013 0.1 0.05 0.05 25 OUTLET
S_2173049806 0.013 0.1 0.05 0.05 25 OUTLET
S_2173049807 0.013 0.1 0.05 0.05 25 OUTLET
S_2173049808 0.013 0.1 0.05 0.05 25 OUTLET
S_2173049901 0.013 0.1 0.05 0.05 25 OUTLET
S_2173049902 0.013 0.1 0.05 0.05 25 OUTLET
S_2173049903 0.013 0.1 0.05 0.05 25 OUTLET
S_2173049904 0.013 0.1 0.05 0.05 25 OUTLET
S_2173049905 0.013 0.1 0.05 0.05 25 OUTLET
S_2173050301 0.013 0.1 0.05 0.05 25 OUTLET
S_2173050301_ 0.013 0.1 0.05 0.05 25 OUTLET
S_2173050302 0.013 0.1 0.05 0.05 25 OUTLET
S_2173050401 0.013 0.1 0.05 0.05 25 OUTLET
S_2173050601 0.013 0.1 0.05 0.05 25 OUTLET
S_2173051401 0.013 0.1 0.05 0.05 25 OUTLET
S_2173051402 0.013 0.1 0.05 0.05 25 OUTLET
S_2173051501 0.013 0.1 0.05 0.05 25 OUTLET
S_2173051502 0.013 0.1 0.05 0.05 25 OUTLET
S_2173052501 0.013 0.1 0.05 0.05 25 OUTLET
S_2173052502 0.013 0.1 0.05 0.05 25 OUTLET
S_2173053001 0.013 0.1 0.05 0.05 25 OUTLET
S_2173053002 0.013 0.1 0.05 0.05 25 OUTLET
S_2173053101 0.013 0.1 0.05 0.05 25 OUTLET
S_2173053201 0.013 0.1 0.05 0.05 25 OUTLET
S_2173053202 0.013 0.1 0.05 0.05 25 OUTLET
S_2173053203 0.013 0.1 0.05 0.05 25 OUTLET
S_2173053301 0.013 0.1 0.05 0.05 25 OUTLET
S_2173053401 0.013 0.1 0.05 0.05 25 OUTLET
S_2173053402 0.013 0.1 0.05 0.05 25 OUTLET
S_2173053403 0.013 0.1 0.05 0.05 25 OUTLET
S_2173054101 0.013 0.1 0.05 0.05 25 OUTLET
S_2173054201 0.013 0.1 0.05 0.05 25 OUTLET
S_2173054202 0.013 0.1 0.05 0.05 25 OUTLET
S_2173054301 0.013 0.1 0.05 0.05 25 OUTLET
S_2173054401 0.013 0.1 0.05 0.05 25 OUTLET
S_2173054505 0.013 0.1 0.05 0.05 25 OUTLET
S_2173054506 0.013 0.1 0.05 0.05 25 OUTLET
S_2173054507 0.013 0.1 0.05 0.05 25 OUTLET
S_2173054508 0.013 0.1 0.05 0.05 25 OUTLET
S_2173054509 0.013 0.1 0.05 0.05 25 OUTLET
S_2173054510 0.013 0.1 0.05 0.05 25 OUTLET
S_2173054511 0.013 0.1 0.05 0.05 25 OUTLET
S_2173054512 0.013 0.1 0.05 0.05 25 OUTLET
S_2173054513 0.013 0.1 0.05 0.05 25 OUTLET
S_2173054601 0.013 0.1 0.05 0.05 25 OUTLET
S_2173054602 0.013 0.1 0.05 0.05 25 OUTLET
S_2173054603 0.013 0.1 0.05 0.05 25 OUTLET
S_2173054604 0.013 0.1 0.05 0.05 25 OUTLET
S_2173054605 0.013 0.1 0.05 0.05 25 OUTLET
S_2173054606 0.013 0.1 0.05 0.05 25 OUTLET
S_2173054607 0.013 0.1 0.05 0.05 25 OUTLET
S_2173054608 0.013 0.1 0.05 0.05 25 OUTLET
S_2173054609 0.013 0.1 0.05 0.05 25 OUTLET
S_2173054610 0.013 0.1 0.05 0.05 25 OUTLET
S_2173054611 0.013 0.1 0.05 0.05 25 OUTLET
S_2173055401 0.013 0.1 0.05 0.05 25 OUTLET
S_2173055503 0.013 0.1 0.05 0.05 25 OUTLET
S_2173055505 0.013 0.1 0.05 0.05 25 OUTLET
S_2173055506 0.013 0.1 0.05 0.05 25 OUTLET
S_2173055507 0.013 0.1 0.05 0.05 25 OUTLET
S_2173055601 0.013 0.1 0.05 0.05 25 OUTLET
S_2173055602 0.013 0.1 0.05 0.05 25 OUTLET
S_2173055603 0.013 0.1 0.05 0.05 25 OUTLET
S_2173055604 0.013 0.1 0.05 0.05 25 OUTLET
S_2173055605 0.013 0.1 0.05 0.05 25 OUTLET
S_2173055606 0.013 0.1 0.05 0.05 25 OUTLET
S_2173056601 0.013 0.1 0.05 0.05 25 OUTLET
S_2173056602 0.013 0.1 0.05 0.05 25 OUTLET
S_2173056701 0.013 0.1 0.05 0.05 25 OUTLET
S_2173057001 0.013 0.1 0.05 0.05 25 OUTLET
S_2173057005 0.013 0.1 0.05 0.05 25 OUTLET
S_2173058001 0.013 0.1 0.05 0.05 25 OUTLET
S_2173058003 0.013 0.1 0.05 0.05 25 OUTLET
S_2173058005 0.013 0.1 0.05 0.05 25 OUTLET
S_2173058007 0.013 0.1 0.05 0.05 25 OUTLET
S_2173058101 0.013 0.1 0.05 0.05 25 OUTLET
S_2173058102 0.013 0.1 0.05 0.05 25 OUTLET
S_2173058103 0.013 0.1 0.05 0.05 25 OUTLET
S_2173058106 0.013 0.1 0.05 0.05 25 OUTLET
S_2173058203 0.013 0.1 0.05 0.05 25 OUTLET
S_2173058205 0.013 0.1 0.05 0.05 25 OUTLET
S_2173058206 0.013 0.1 0.05 0.05 25 OUTLET
S_2173058301 0.013 0.1 0.05 0.05 25 OUTLET
S_2173058303 0.013 0.1 0.05 0.05 25 OUTLET
S_2173058305 0.013 0.1 0.05 0.05 25 OUTLET
S_2173058306 0.013 0.1 0.05 0.05 25 OUTLET
S_2173058308 0.013 0.1 0.05 0.05 25 OUTLET
S_2173058401 0.013 0.1 0.05 0.05 25 OUTLET
S_2173058402 0.013 0.1 0.05 0.05 25 OUTLET
S_2173059001 0.013 0.1 0.05 0.05 25 OUTLET
S_2173059002 0.013 0.1 0.05 0.05 25 OUTLET
S_2173059003 0.013 0.1 0.05 0.05 25 OUTLET
S_2173059004 0.013 0.1 0.05 0.05 25 OUTLET
S_2173059005 0.013 0.1 0.05 0.05 25 OUTLET
S_2173059006 0.013 0.1 0.05 0.05 25 OUTLET
S_2173059007 0.013 0.1 0.05 0.05 25 OUTLET
S_2173059103 0.013 0.1 0.05 0.05 25 OUTLET
S_2173059104 0.013 0.1 0.05 0.05 25 OUTLET
S_2173059105 0.013 0.1 0.05 0.05 25 OUTLET
S_2173059201 0.013 0.1 0.05 0.05 25 OUTLET
S_2173059202 0.013 0.1 0.05 0.05 25 OUTLET
S_2173059204 0.013 0.1 0.05 0.05 25 OUTLET
S_2173059301 0.013 0.1 0.05 0.05 25 OUTLET
S_2173059401 0.013 0.1 0.05 0.05 25 OUTLET
S_2173059402 0.013 0.1 0.05 0.05 25 OUTLET
S_2173059403 0.013 0.1 0.05 0.05 25 OUTLET
S_2173059404 0.013 0.1 0.05 0.05 25 OUTLET
S_2173059405 0.013 0.1 0.05 0.05 25 OUTLET
S_2173059406 0.013 0.1 0.05 0.05 25 OUTLET
S_2173059407 0.013 0.1 0.05 0.05 25 OUTLET
S_2173059408 0.013 0.1 0.05 0.05 25 OUTLET
S_2173059501 0.013 0.1 0.05 0.05 25 OUTLET
S_2173059502 0.013 0.1 0.05 0.05 25 OUTLET
S_2173059503 0.013 0.1 0.05 0.05 25 OUTLET
S_2173059504 0.013 0.1 0.05 0.05 25 OUTLET
S_2173059505 0.013 0.1 0.05 0.05 25 OUTLET
S_2173059601 0.013 0.1 0.05 0.05 25 OUTLET
S_2174031101 0.013 0.1 0.05 0.05 25 OUTLET
S_2174031203 0.013 0.1 0.05 0.05 25 OUTLET
S_2174031306 0.013 0.1 0.05 0.05 25 OUTLET
S_2174031405 0.013 0.1 0.05 0.05 25 OUTLET
S_2174031701 0.013 0.1 0.05 0.05 25 OUTLET
S_2174031704 0.013 0.1 0.05 0.05 25 OUTLET
S_2174032201 0.013 0.1 0.05 0.05 25 OUTLET
S_2174032202 0.013 0.1 0.05 0.05 25 OUTLET
S_2174032203 0.013 0.1 0.05 0.05 25 OUTLET
S_2174032303 0.013 0.1 0.05 0.05 25 OUTLET
S_2174032304 0.013 0.1 0.05 0.05 25 OUTLET
S_2174032305 0.013 0.1 0.05 0.05 25 OUTLET
S_2174032306 0.013 0.1 0.05 0.05 25 OUTLET
S_2174032307 0.013 0.1 0.05 0.05 25 OUTLET
S_2174032601 0.013 0.1 0.05 0.05 25 OUTLET
S_2174033201 0.013 0.1 0.05 0.05 25 OUTLET
S_2174033202 0.013 0.1 0.05 0.05 25 OUTLET
S_2174033203 0.013 0.1 0.05 0.05 25 OUTLET
S_2174033204 0.013 0.1 0.05 0.05 25 OUTLET
S_2174033205 0.013 0.1 0.05 0.05 25 OUTLET
S_2174033206 0.013 0.1 0.05 0.05 25 OUTLET
S_2174033207 0.013 0.1 0.05 0.05 25 OUTLET
S_2174033301 0.013 0.1 0.05 0.05 25 OUTLET
S_2174033302 0.013 0.1 0.05 0.05 25 OUTLET
S_2174033304 0.013 0.1 0.05 0.05 25 OUTLET
S_2174033306 0.013 0.1 0.05 0.05 25 OUTLET
S_2174033308 0.013 0.1 0.05 0.05 25 OUTLET
S_2174033309 0.013 0.1 0.05 0.05 25 OUTLET
S_2174033310 0.013 0.1 0.05 0.05 25 OUTLET
S_2174040001 0.013 0.1 0.05 0.05 25 OUTLET
S_2174040102 0.013 0.1 0.05 0.05 25 OUTLET
S_2174040103 0.013 0.1 0.05 0.05 25 OUTLET
S_2174040104 0.013 0.1 0.05 0.05 25 OUTLET
S_2174040105 0.013 0.1 0.05 0.05 25 OUTLET
S_2174040106 0.013 0.1 0.05 0.05 25 OUTLET
S_2174040107 0.013 0.1 0.05 0.05 25 OUTLET
S_2174040201 0.013 0.1 0.05 0.05 25 OUTLET
S_2174040202 0.013 0.1 0.05 0.05 25 OUTLET
S_2174040203 0.013 0.1 0.05 0.05 25 OUTLET
S_2174040204 0.013 0.1 0.05 0.05 25 OUTLET
S_2174040301 0.013 0.1 0.05 0.05 25 OUTLET
S_2174040302 0.013 0.1 0.05 0.05 25 OUTLET
S_2174040303 0.013 0.1 0.05 0.05 25 OUTLET
S_2174040401 0.013 0.1 0.05 0.05 25 OUTLET
S_2174040402 0.013 0.1 0.05 0.05 25 OUTLET
S_2174040403 0.013 0.1 0.05 0.05 25 OUTLET
S_2174040404 0.013 0.1 0.05 0.05 25 OUTLET
S_2174040405 0.013 0.1 0.05 0.05 25 OUTLET
S_2174040502 0.013 0.1 0.05 0.05 25 OUTLET
S_2174040601 0.013 0.1 0.05 0.05 25 OUTLET
S_2174040602 0.013 0.1 0.05 0.05 25 OUTLET
S_2174040603 0.013 0.1 0.05 0.05 25 OUTLET
S_2174040701 0.013 0.1 0.05 0.05 25 OUTLET
S_2174040702 0.013 0.1 0.05 0.05 25 OUTLET
S_2174040703 0.013 0.1 0.05 0.05 25 OUTLET
S_2174040704 0.013 0.1 0.05 0.05 25 OUTLET
S_2174040705 0.013 0.1 0.05 0.05 25 OUTLET
S_2174040706 0.013 0.1 0.05 0.05 25 OUTLET
S_2174040901 0.013 0.1 0.05 0.05 25 OUTLET
S_2174040902 0.013 0.1 0.05 0.05 25 OUTLET
S_2174040904 0.013 0.1 0.05 0.05 25 OUTLET
S_2174040905 0.013 0.1 0.05 0.05 25 OUTLET
S_2174040906 0.013 0.1 0.05 0.05 25 OUTLET
S_2174040907 0.013 0.1 0.05 0.05 25 OUTLET
S_2174040908 0.013 0.1 0.05 0.05 25 OUTLET
S_2174041101 0.013 0.1 0.05 0.05 25 OUTLET
S_2174041102 0.013 0.1 0.05 0.05 25 OUTLET
S_2174041103 0.013 0.1 0.05 0.05 25 OUTLET
S_2174041104 0.013 0.1 0.05 0.05 25 OUTLET
S_2174041105 0.013 0.1 0.05 0.05 25 OUTLET
S_2174041201 0.013 0.1 0.05 0.05 25 OUTLET
S_2174041202 0.013 0.1 0.05 0.05 25 OUTLET
S_2174041203 0.013 0.1 0.05 0.05 25 OUTLET
S_2174041204 0.013 0.1 0.05 0.05 25 OUTLET
S_2174041205 0.013 0.1 0.05 0.05 25 OUTLET
S_2174041206 0.013 0.1 0.05 0.05 25 OUTLET
S_2174041207 0.013 0.1 0.05 0.05 25 OUTLET
S_2174041208 0.013 0.1 0.05 0.05 25 OUTLET
S_2174041301 0.013 0.1 0.05 0.05 25 OUTLET
S_2174041302 0.013 0.1 0.05 0.05 25 OUTLET
S_2174041303 0.013 0.1 0.05 0.05 25 OUTLET
S_2174041304 0.013 0.1 0.05 0.05 25 OUTLET
S_2174041305 0.013 0.1 0.05 0.05 25 OUTLET
S_2174041401 0.013 0.1 0.05 0.05 25 OUTLET
S_2174041402 0.013 0.1 0.05 0.05 25 OUTLET
S_2174041403 0.013 0.1 0.05 0.05 25 OUTLET
S_2174041404 0.013 0.1 0.05 0.05 25 OUTLET
S_2174041405 0.013 0.1 0.05 0.05 25 OUTLET
S_2174041501 0.013 0.1 0.05 0.05 25 OUTLET
S_2174041502 0.013 0.1 0.05 0.05 25 OUTLET
S_2174041503 0.013 0.1 0.05 0.05 25 OUTLET
S_2174041504 0.013 0.1 0.05 0.05 25 OUTLET
S_2174041601 0.013 0.1 0.05 0.05 25 OUTLET
S_2174041602 0.013 0.1 0.05 0.05 25 OUTLET
S_2174041603 0.013 0.1 0.05 0.05 25 OUTLET
S_2174041704 0.013 0.1 0.05 0.05 25 OUTLET
S_2174041705 0.013 0.1 0.05 0.05 25 OUTLET
S_2174041801 0.013 0.1 0.05 0.05 25 OUTLET
S_2174041803 0.013 0.1 0.05 0.05 25 OUTLET
S_2174041806 0.013 0.1 0.05 0.05 25 OUTLET
S_2174041807 0.013 0.1 0.05 0.05 25 OUTLET
S_2174041901 0.013 0.1 0.05 0.05 25 OUTLET
S_2174042201 0.013 0.1 0.05 0.05 25 OUTLET
S_2174042202 0.013 0.1 0.05 0.05 25 OUTLET
S_2174042203 0.013 0.1 0.05 0.05 25 OUTLET
S_2174042204 0.013 0.1 0.05 0.05 25 OUTLET
S_2174042301 0.013 0.1 0.05 0.05 25 OUTLET
S_2174042302 0.013 0.1 0.05 0.05 25 OUTLET
S_2174042303 0.013 0.1 0.05 0.05 25 OUTLET
S_2174042401 0.013 0.1 0.05 0.05 25 OUTLET
S_2174042402 0.013 0.1 0.05 0.05 25 OUTLET
S_2174042403 0.013 0.1 0.05 0.05 25 OUTLET
S_2174042404 0.013 0.1 0.05 0.05 25 OUTLET
S_2174042501 0.013 0.1 0.05 0.05 25 OUTLET
S_2174042502 0.013 0.1 0.05 0.05 25 OUTLET
S_2174042604 0.013 0.1 0.05 0.05 25 OUTLET
S_2174042605 0.013 0.1 0.05 0.05 25 OUTLET
S_2174042704 0.013 0.1 0.05 0.05 25 OUTLET
S_2174042901 0.013 0.1 0.05 0.05 25 OUTLET
S_2174042902 0.013 0.1 0.05 0.05 25 OUTLET
S_2174042903 0.013 0.1 0.05 0.05 25 OUTLET
S_2174042904 0.013 0.1 0.05 0.05 25 OUTLET
S_2174042905 0.013 0.1 0.05 0.05 25 OUTLET
S_2174042906 0.013 0.1 0.05 0.05 25 OUTLET
S_2174042907 0.013 0.1 0.05 0.05 25 OUTLET
S_2174043203 0.013 0.1 0.05 0.05 25 OUTLET
S_2174043301 0.013 0.1 0.05 0.05 25 OUTLET
S_2174043302 0.013 0.1 0.05 0.05 25 OUTLET
S_2174043303 0.013 0.1 0.05 0.05 25 OUTLET
S_2174043401 0.013 0.1 0.05 0.05 25 OUTLET
S_2174043402 0.013 0.1 0.05 0.05 25 OUTLET
S_2174043403 0.013 0.1 0.05 0.05 25 OUTLET
S_2174043501 0.013 0.1 0.05 0.05 25 OUTLET
S_2174043502 0.013 0.1 0.05 0.05 25 OUTLET
S_2174043701 0.013 0.1 0.05 0.05 25 OUTLET
S_2174043801 0.013 0.1 0.05 0.05 25 OUTLET
S_2174043802 0.013 0.1 0.05 0.05 25 OUTLET
S_2174043803 0.013 0.1 0.05 0.05 25 OUTLET
S_2174043901 0.013 0.1 0.05 0.05 25 OUTLET
S_2174043902 0.013 0.1 0.05 0.05 25 OUTLET
S_2174043903 0.013 0.1 0.05 0.05 25 OUTLET
S_2174043904 0.013 0.1 0.05 0.05 25 OUTLET
S_2174043905 0.013 0.1 0.05 0.05 25 OUTLET
S_2174050001 0.013 0.1 0.05 0.05 25 OUTLET
S_2174050002 0.013 0.1 0.05 0.05 25 OUTLET
S_2174050003 0.013 0.1 0.05 0.05 25 OUTLET
S_2174050004 0.013 0.1 0.05 0.05 25 OUTLET
S_2174050101 0.013 0.1 0.05 0.05 25 OUTLET
S_2174050102 0.013 0.1 0.05 0.05 25 OUTLET
S_2174050103 0.013 0.1 0.05 0.05 25 OUTLET
S_2174050104 0.013 0.1 0.05 0.05 25 OUTLET
S_2174050105 0.013 0.1 0.05 0.05 25 OUTLET
S_2174050106 0.013 0.1 0.05 0.05 25 OUTLET
S_2174050202 0.013 0.1 0.05 0.05 25 OUTLET
S_2174050203 0.013 0.1 0.05 0.05 25 OUTLET
S_2174050204 0.013 0.1 0.05 0.05 25 OUTLET
S_2174050205 0.013 0.1 0.05 0.05 25 OUTLET
S_2174050304 0.013 0.1 0.05 0.05 25 OUTLET
S_2174050305 0.013 0.1 0.05 0.05 25 OUTLET
S_2174050401 0.013 0.1 0.05 0.05 25 OUTLET
S_2174050405 0.013 0.1 0.05 0.05 25 OUTLET
S_2174050501 0.013 0.1 0.05 0.05 25 OUTLET
S_2174050502 0.013 0.1 0.05 0.05 25 OUTLET
S_2174050503 0.013 0.1 0.05 0.05 25 OUTLET
S_2174050504 0.013 0.1 0.05 0.05 25 OUTLET
S_2174050505 0.013 0.1 0.05 0.05 25 OUTLET
S_2174050506 0.013 0.1 0.05 0.05 25 OUTLET
S_2174050507 0.013 0.1 0.05 0.05 25 OUTLET
S_2174050508 0.013 0.1 0.05 0.05 25 OUTLET
S_2174050509 0.013 0.1 0.05 0.05 25 OUTLET
S_2174050510 0.013 0.1 0.05 0.05 25 OUTLET
S_2174050511 0.013 0.1 0.05 0.05 25 OUTLET
S_2174050601 0.013 0.1 0.05 0.05 25 OUTLET
S_2174050602 0.013 0.1 0.05 0.05 25 OUTLET
S_2174050603 0.013 0.1 0.05 0.05 25 OUTLET
S_2174050604 0.013 0.1 0.05 0.05 25 OUTLET
S_2174050605 0.013 0.1 0.05 0.05 25 OUTLET
S_2174050606 0.013 0.1 0.05 0.05 25 OUTLET
S_2174050607 0.013 0.1 0.05 0.05 25 OUTLET
S_2174050608 0.013 0.1 0.05 0.05 25 OUTLET
S_2174050702 0.013 0.1 0.05 0.05 25 OUTLET
S_2174051001 0.013 0.1 0.05 0.05 25 OUTLET
S_2174051002 0.013 0.1 0.05 0.05 25 OUTLET
S_2174051003 0.013 0.1 0.05 0.05 25 OUTLET
S_2174051004 0.013 0.1 0.05 0.05 25 OUTLET
S_2174051005 0.013 0.1 0.05 0.05 25 OUTLET
S_2174051101 0.013 0.1 0.05 0.05 25 OUTLET
S_2174051102 0.013 0.1 0.05 0.05 25 OUTLET
S_2174051201 0.013 0.1 0.05 0.05 25 OUTLET
S_2174051202 0.013 0.1 0.05 0.05 25 OUTLET
S_2174051203 0.013 0.1 0.05 0.05 25 OUTLET
S_2174051301 0.013 0.1 0.05 0.05 25 OUTLET
S_2174051302 0.013 0.1 0.05 0.05 25 OUTLET
S_2174051303 0.013 0.1 0.05 0.05 25 OUTLET
S_2174051304 0.013 0.1 0.05 0.05 25 OUTLET
S_2174051402 0.013 0.1 0.05 0.05 25 OUTLET
S_2174051403 0.013 0.1 0.05 0.05 25 OUTLET
S_2174051601 0.013 0.1 0.05 0.05 25 OUTLET
S_2174051602 0.013 0.1 0.05 0.05 25 OUTLET
S_2174051603 0.013 0.1 0.05 0.05 25 OUTLET
S_2174051604 0.013 0.1 0.05 0.05 25 OUTLET
S_2174051701 0.013 0.1 0.05 0.05 25 OUTLET
S_2174052001 0.013 0.1 0.05 0.05 25 OUTLET
S_2174052002 0.013 0.1 0.05 0.05 25 OUTLET
S_2174052003 0.013 0.1 0.05 0.05 25 OUTLET
S_2174052004 0.013 0.1 0.05 0.05 25 OUTLET
S_2174052101 0.013 0.1 0.05 0.05 25 OUTLET
S_2174052101_ 0.013 0.1 0.05 0.05 25 OUTLET
S_2174052102 0.013 0.1 0.05 0.05 25 OUTLET
S_2174052103 0.013 0.1 0.05 0.05 25 OUTLET
S_2174052201 0.013 0.1 0.05 0.05 25 OUTLET
S_2174052202 0.013 0.1 0.05 0.05 25 OUTLET
S_2174052203 0.013 0.1 0.05 0.05 25 OUTLET
S_2174052204 0.013 0.1 0.05 0.05 25 OUTLET
S_2174052205 0.013 0.1 0.05 0.05 25 OUTLET
S_2174052301 0.013 0.1 0.05 0.05 25 OUTLET
S_2174052302 0.013 0.1 0.05 0.05 25 OUTLET
S_2174052303 0.013 0.1 0.05 0.05 25 OUTLET
S_2174052402 0.013 0.1 0.05 0.05 25 OUTLET
S_2174052403 0.013 0.1 0.05 0.05 25 OUTLET
S_2174052404 0.013 0.1 0.05 0.05 25 OUTLET
S_2174052405 0.013 0.1 0.05 0.05 25 OUTLET
S_2174052406 0.013 0.1 0.05 0.05 25 OUTLET
S_2174052407 0.013 0.1 0.05 0.05 25 OUTLET
S_2174052408 0.013 0.1 0.05 0.05 25 OUTLET
S_2174052501_ 0.013 0.1 0.05 0.05 25 OUTLET
S_2174052502_ 0.013 0.1 0.05 0.05 25 OUTLET
S_2174052503 0.013 0.1 0.05 0.05 25 OUTLET
S_2174052504 0.013 0.1 0.05 0.05 25 OUTLET
S_2174052505 0.013 0.1 0.05 0.05 25 OUTLET
S_2174052601 0.013 0.1 0.05 0.05 25 OUTLET
S_2174052601_ 0.013 0.1 0.05 0.05 25 OUTLET
S_2174052602 0.013 0.1 0.05 0.05 25 OUTLET
S_2174053001 0.013 0.1 0.05 0.05 25 OUTLET
S_2174053001_ 0.013 0.1 0.05 0.05 25 OUTLET
S_2174053002 0.013 0.1 0.05 0.05 25 OUTLET
S_2174053002_ 0.013 0.1 0.05 0.05 25 OUTLET
S_2174053101 0.013 0.1 0.05 0.05 25 OUTLET
S_2174053102 0.013 0.1 0.05 0.05 25 OUTLET
S_2174053201 0.013 0.1 0.05 0.05 25 OUTLET
S_2174053202 0.013 0.1 0.05 0.05 25 OUTLET
S_2174053203 0.013 0.1 0.05 0.05 25 OUTLET
S_2174053204 0.013 0.1 0.05 0.05 25 OUTLET
S_2174053205 0.013 0.1 0.05 0.05 25 OUTLET
S_2174053206 0.013 0.1 0.05 0.05 25 OUTLET
S_2174053207 0.013 0.1 0.05 0.05 25 OUTLET
S_2174053301 0.013 0.1 0.05 0.05 25 OUTLET
S_2174053301_ 0.013 0.1 0.05 0.05 25 OUTLET
S_2174053302 0.013 0.1 0.05 0.05 25 OUTLET
S_2174053303 0.013 0.1 0.05 0.05 25 OUTLET
S_2174053304 0.013 0.1 0.05 0.05 25 OUTLET
S_2174053401 0.013 0.1 0.05 0.05 25 OUTLET
S_2174053401_ 0.013 0.1 0.05 0.05 25 OUTLET
S_2174053402 0.013 0.1 0.05 0.05 25 OUTLET
S_2174053402_ 0.013 0.1 0.05 0.05 25 OUTLET
S_2174053403 0.013 0.1 0.05 0.05 25 OUTLET
S_2174053403_ 0.013 0.1 0.05 0.05 25 OUTLET
S_2174053501 0.013 0.1 0.05 0.05 25 OUTLET
S_2174053501_ 0.013 0.1 0.05 0.05 25 OUTLET
S_2174053502 0.013 0.1 0.05 0.05 25 OUTLET
S_2174053503 0.013 0.1 0.05 0.05 25 OUTLET
S_2174053504 0.013 0.1 0.05 0.05 25 OUTLET
S_2174053505 0.013 0.1 0.05 0.05 25 OUTLET
S_2174053506 0.013 0.1 0.05 0.05 25 OUTLET
S_2174053507 0.013 0.1 0.05 0.05 25 OUTLET
S_2174053601 0.013 0.1 0.05 0.05 25 OUTLET
S_2174053602 0.013 0.1 0.05 0.05 25 OUTLET
S_2174053603 0.013 0.1 0.05 0.05 25 OUTLET
S_2174053604 0.013 0.1 0.05 0.05 25 OUTLET
S_2174053605 0.013 0.1 0.05 0.05 25 OUTLET
S_2174053606 0.013 0.1 0.05 0.05 25 OUTLET

[INFILTRATION]
;;Subcatchment MaxRate MinRate Decay DryTime MaxInfil
S_2171039212 76.2 3.3 4.14 7 0
S_2171039213 76.2 3.3 4.14 7 0
S_2171039214 76.2 3.3 4.14 7 0
S_2171039215 76.2 3.3 4.14 7 0
S_2171039216 76.2 3.3 4.14 7 0
S_2171039217 76.2 3.3 4.14 7 0
S_2171039218 76.2 3.3 4.14 7 0
S_2171039301 76.2 3.3 4.14 7 0
S_2171049801 76.2 3.3 4.14 7 0
S_2171049802 76.2 3.3 4.14 7 0
S_2171049803 76.2 3.3 4.14 7 0
S_2171049804 76.2 3.3 4.14 7 0
S_2172030101 76.2 3.3 4.14 7 0
S_2172030103 76.2 3.3 4.14 7 0
S_2172030104 76.2 3.3 4.14 7 0
S_2172030105 76.2 3.3 4.14 7 0
S_2172030106 76.2 3.3 4.14 7 0
S_2172030107 76.2 3.3 4.14 7 0
S_2172030109 76.2 3.3 4.14 7 0
S_2172030201 76.2 3.3 4.14 7 0
S_2172030301 76.2 3.3 4.14 7 0
S_2172030302 76.2 3.3 4.14 7 0
S_2172030303 76.2 3.3 4.14 7 0
S_2172030304 76.2 3.3 4.14 7 0
S_2172030305 76.2 3.3 4.14 7 0
S_2172030306 76.2 3.3 4.14 7 0
S_2172030402 76.2 3.3 4.14 7 0
S_2172030403 76.2 3.3 4.14 7 0
S_2172030505 76.2 3.3 4.14 7 0
S_2172030506 76.2 3.3 4.14 7 0
S_2172030601 76.2 3.3 4.14 7 0
S_2172030903 76.2 3.3 4.14 7 0
S_2172031301 76.2 3.3 4.14 7 0
S_2172031302 76.2 3.3 4.14 7 0
S_2172031401 76.2 3.3 4.14 7 0
S_2172031402 76.2 3.3 4.14 7 0
S_2172031403 76.2 3.3 4.14 7 0
S_2172031404 76.2 3.3 4.14 7 0
S_2172031405 76.2 3.3 4.14 7 0
S_2172031406 76.2 3.3 4.14 7 0
S_2172031407 76.2 3.3 4.14 7 0
S_2172031408 76.2 3.3 4.14 7 0
S_2172031409 76.2 3.3 4.14 7 0
S_2172031503 76.2 3.3 4.14 7 0
S_2172031505 76.2 3.3 4.14 7 0
S_2172031506 76.2 3.3 4.14 7 0
S_2172031601 76.2 3.3 4.14 7 0
S_2172031602 76.2 3.3 4.14 7 0
S_2172031604 76.2 3.3 4.14 7 0
S_2172031605 76.2 3.3 4.14 7 0
S_2172031801 76.2 3.3 4.14 7 0
S_2172031802 76.2 3.3 4.14 7 0
S_2172031901 76.2 3.3 4.14 7 0
S_2172031902 76.2 3.3 4.14 7 0
S_2172032301 76.2 3.3 4.14 7 0
S_2172032302 76.2 3.3 4.14 7 0
S_2172032303 76.2 3.3 4.14 7 0
S_2172032501 76.2 3.3 4.14 7 0
S_2172032502 76.2 3.3 4.14 7 0
S_2172032503 76.2 3.3 4.14 7 0
S_2172032504 76.2 3.3 4.14 7 0
S_2172032601 76.2 3.3 4.14 7 0
S_2172032602 76.2 3.3 4.14 7 0
S_2172032603 76.2 3.3 4.14 7 0
S_2172032604 76.2 3.3 4.14 7 0
S_2172032605 76.2 3.3 4.14 7 0
S_2172032606 76.2 3.3 4.14 7 0
S_2172032701 76.2 3.3 4.14 7 0
S_2172032702 76.2 3.3 4.14 7 0
S_2172032703 76.2 3.3 4.14 7 0
S_2172032704 76.2 3.3 4.14 7 0
S_2172032705 76.2 3.3 4.14 7 0
S_2172032706 76.2 3.3 4.14 7 0
S_2172032707 76.2 3.3 4.14 7 0
S_2172032708 76.2 3.3 4.14 7 0
S_2172032709 76.2 3.3 4.14 7 0
S_2172032710 76.2 3.3 4.14 7 0
S_2172032803 76.2 3.3 4.14 7 0
S_2172033601 76.2 3.3 4.14 7 0
S_2172033602 76.2 3.3 4.14 7 0
S_2172033603 76.2 3.3 4.14 7 0
S_2172033604 76.2 3.3 4.14 7 0
S_2172033701 76.2 3.3 4.14 7 0
S_2172033702 76.2 3.3 4.14 7 0
S_2172033703 76.2 3.3 4.14 7 0
S_2172033704 76.2 3.3 4.14 7 0
S_2172033705 76.2 3.3 4.14 7 0
S_2172033801 76.2 3.3 4.14 7 0
S_2172034701 76.2 3.3 4.14 7 0
S_2172034702 76.2 3.3 4.14 7 0
S_2172034801 76.2 3.3 4.14 7 0
S_2172034802 76.2 3.3 4.14 7 0
S_2172034803 76.2 3.3 4.14 7 0
S_2172034804 76.2 3.3 4.14 7 0
S_2172034805 76.2 3.3 4.14 7 0
S_2172034806 76.2 3.3 4.14 7 0
S_2172035701 76.2 3.3 4.14 7 0
S_2172035901 76.2 3.3 4.14 7 0
S_2172035902 76.2 3.3 4.14 7 0
S_2172035903 76.2 3.3 4.14 7 0
S_2172035904 76.2 3.3 4.14 7 0
S_2172035905 76.2 3.3 4.14 7 0
S_2172035906 76.2 3.3 4.14 7 0
S_2172036601 76.2 3.3 4.14 7 0
S_2172036602 76.2 3.3 4.14 7 0
S_2172036603 76.2 3.3 4.14 7 0
S_2172037001 76.2 3.3 4.14 7 0
S_2172037202 76.2 3.3 4.14 7 0
S_2172037204 76.2 3.3 4.14 7 0
S_2172037501 76.2 3.3 4.14 7 0
S_2172037502 76.2 3.3 4.14 7 0
S_2172037503 76.2 3.3 4.14 7 0
S_2172037701 76.2 3.3 4.14 7 0
S_2172038101 76.2 3.3 4.14 7 0
S_2172038102 76.2 3.3 4.14 7 0
S_2172038103 76.2 3.3 4.14 7 0
S_2172038104 76.2 3.3 4.14 7 0
S_2172038201 76.2 3.3 4.14 7 0
S_2172038202 76.2 3.3 4.14 7 0
S_2172038203 76.2 3.3 4.14 7 0
S_2172038302 76.2 3.3 4.14 7 0
S_2172038303 76.2 3.3 4.14 7 0
S_2172038306 76.2 3.3 4.14 7 0
S_2172038308 76.2 3.3 4.14 7 0
S_2172038403 76.2 3.3 4.14 7 0
S_2172038404 76.2 3.3 4.14 7 0
S_2172038406 76.2 3.3 4.14 7 0
S_2172038407 76.2 3.3 4.14 7 0
S_2172038501 76.2 3.3 4.14 7 0
S_2172038502 76.2 3.3 4.14 7 0
S_2172038503 76.2 3.3 4.14 7 0
S_2172038505 76.2 3.3 4.14 7 0
S_2172038506 76.2 3.3 4.14 7 0
S_2172038509 76.2 3.3 4.14 7 0
S_2172038512 76.2 3.3 4.14 7 0
S_2172038513 76.2 3.3 4.14 7 0
S_2172038514 76.2 3.3 4.14 7 0
S_2172038602 76.2 3.3 4.14 7 0
S_2172038701 76.2 3.3 4.14 7 0
S_2172038702 76.2 3.3 4.14 7 0
S_2172038703 76.2 3.3 4.14 7 0
S_2172038704 76.2 3.3 4.14 7 0
S_2172039101 76.2 3.3 4.14 7 0
S_2172039102 76.2 3.3 4.14 7 0
S_2172039104 76.2 3.3 4.14 7 0
S_2172039202 76.2 3.3 4.14 7 0
S_2172039203 76.2 3.3 4.14 7 0
S_2172039204 76.2 3.3 4.14 7 0
S_2172039205 76.2 3.3 4.14 7 0
S_2172039206 76.2 3.3 4.14 7 0
S_2172039302 76.2 3.3 4.14 7 0
S_2172039303 76.2 3.3 4.14 7 0
S_2172039304 76.2 3.3 4.14 7 0
S_2172039305 76.2 3.3 4.14 7 0
S_2172039306 76.2 3.3 4.14 7 0
S_2172039307 76.2 3.3 4.14 7 0
S_2172039308 76.2 3.3 4.14 7 0
S_2172039309 76.2 3.3 4.14 7 0
S_2172039310 76.2 3.3 4.14 7 0
S_2172039311 76.2 3.3 4.14 7 0
S_2172039401 76.2 3.3 4.14 7 0
S_2172039402 76.2 3.3 4.14 7 0
S_2172039403 76.2 3.3 4.14 7 0
S_2172039404 76.2 3.3 4.14 7 0
S_2172039405 76.2 3.3 4.14 7 0
S_2172039407 76.2 3.3 4.14 7 0
S_2172039501 76.2 3.3 4.14 7 0
S_2172039502 76.2 3.3 4.14 7 0
S_2172039503 76.2 3.3 4.14 7 0
S_2172039504 76.2 3.3 4.14 7 0
S_2172039506 76.2 3.3 4.14 7 0
S_2172039507 76.2 3.3 4.14 7 0
S_2172039508 76.2 3.3 4.14 7 0
S_2172039703 76.2 3.3 4.14 7 0
S_2172039704 76.2 3.3 4.14 7 0
S_2172039705 76.2 3.3 4.14 7 0
S_2172039706 76.2 3.3 4.14 7 0
S_2172040701 76.2 3.3 4.14 7 0
S_2172040702 76.2 3.3 4.14 7 0
S_2172040802 76.2 3.3 4.14 7 0
S_2172041709 76.2 3.3 4.14 7 0
S_2172041802 76.2 3.3 4.14 7 0
S_2172041902 76.2 3.3 4.14 7 0
S_2172041903 76.2 3.3 4.14 7 0
S_2172041905 76.2 3.3 4.14 7 0
S_2172041907 76.2 3.3 4.14 7 0
S_2172042301_ 76.2 3.3 4.14 7 0
S_2172042302_ 76.2 3.3 4.14 7 0
S_2172042401_ 76.2 3.3 4.14 7 0
S_2172042402 76.2 3.3 4.14 7 0
S_2172042403 76.2 3.3 4.14 7 0
S_2172042604 76.2 3.3 4.14 7 0
S_2172042605 76.2 3.3 4.14 7 0
S_2172042701 76.2 3.3 4.14 7 0
S_2172042702 76.2 3.3 4.14 7 0
S_2172042802 76.2 3.3 4.14 7 0
S_2172042901 76.2 3.3 4.14 7 0
S_2172042902 76.2 3.3 4.14 7 0
S_2172043301 76.2 3.3 4.14 7 0
S_2172043401 76.2 3.3 4.14 7 0
S_2172043401_ 76.2 3.3 4.14 7 0
S_2172043501 76.2 3.3 4.14 7 0
S_2172043502 76.2 3.3 4.14 7 0
S_2172043503 76.2 3.3 4.14 7 0
S_2172043504 76.2 3.3 4.14 7 0
S_2172043505 76.2 3.3 4.14 7 0
S_2172043506 76.2 3.3 4.14 7 0
S_2172043507 76.2 3.3 4.14 7 0
S_2172043508 76.2 3.3 4.14 7 0
S_2172043602 76.2 3.3 4.14 7 0
S_2172043603 76.2 3.3 4.14 7 0
S_2172043604 76.2 3.3 4.14 7 0
S_2172043605 76.2 3.3 4.14 7 0
S_2172043606 76.2 3.3 4.14 7 0
S_2172043607 76.2 3.3 4.14 7 0
S_2172043701 76.2 3.3 4.14 7 0
S_2172043702 76.2 3.3 4.14 7 0
S_2172043703 76.2 3.3 4.14 7 0
S_2172043704 76.2 3.3 4.14 7 0
S_2172043705 76.2 3.3 4.14 7 0
S_2172043706 76.2 3.3 4.14 7 0
S_2172043801 76.2 3.3 4.14 7 0
S_2172043802 76.2 3.3 4.14 7 0
S_2172043803 76.2 3.3 4.14 7 0
S_2172043804 76.2 3.3 4.14 7 0
S_2172043904 76.2 3.3 4.14 7 0
S_2172043905 76.2 3.3 4.14 7 0
S_2172043906 76.2 3.3 4.14 7 0
S_2172043907 76.2 3.3 4.14 7 0
S_2172044002 76.2 3.3 4.14 7 0
S_2172044103 76.2 3.3 4.14 7 0
S_2172044401 76.2 3.3 4.14 7 0
S_2172044402 76.2 3.3 4.14 7 0
S_2172044403 76.2 3.3 4.14 7 0
S_2172044601 76.2 3.3 4.14 7 0
S_2172044602 76.2 3.3 4.14 7 0
S_2172044603 76.2 3.3 4.14 7 0
S_2172044604 76.2 3.3 4.14 7 0
S_2172044605 76.2 3.3 4.14 7 0
S_2172044606 76.2 3.3 4.14 7 0
S_2172044607 76.2 3.3 4.14 7 0
S_2172044701 76.2 3.3 4.14 7 0
S_2172044702 76.2 3.3 4.14 7 0
S_2172044703 76.2 3.3 4.14 7 0
S_2172044704 76.2 3.3 4.14 7 0
S_2172044705 76.2 3.3 4.14 7 0
S_2172044706 76.2 3.3 4.14 7 0
S_2172044707 76.2 3.3 4.14 7 0
S_2172044902 76.2 3.3 4.14 7 0
S_2172044903 76.2 3.3 4.14 7 0
S_2172044905 76.2 3.3 4.14 7 0
S_2172044909 76.2 3.3 4.14 7 0
S_2172044910 76.2 3.3 4.14 7 0
S_2172045001 76.2 3.3 4.14 7 0
S_2172045002 76.2 3.3 4.14 7 0
S_2172045003 76.2 3.3 4.14 7 0
S_2172045701 76.2 3.3 4.14 7 0
S_2172045702 76.2 3.3 4.14 7 0
S_2172045704 76.2 3.3 4.14 7 0
S_2172045801 76.2 3.3 4.14 7 0
S_2172045802 76.2 3.3 4.14 7 0
S_2172045803 76.2 3.3 4.14 7 0
S_2172045804 76.2 3.3 4.14 7 0
S_2172045805 76.2 3.3 4.14 7 0
S_2172045806 76.2 3.3 4.14 7 0
S_2172045807 76.2 3.3 4.14 7 0
S_2172045808 76.2 3.3 4.14 7 0
S_2172045809 76.2 3.3 4.14 7 0
S_2172045810 76.2 3.3 4.14 7 0
S_2172045902 76.2 3.3 4.14 7 0
S_2172045904 76.2 3.3 4.14 7 0
S_2172045905 76.2 3.3 4.14 7 0
S_2172046001 76.2 3.3 4.14 7 0
S_2172046002 76.2 3.3 4.14 7 0
S_2172046003 76.2 3.3 4.14 7 0
S_2172046004 76.2 3.3 4.14 7 0
S_2172046005 76.2 3.3 4.14 7 0
S_2172046801_ 76.2 3.3 4.14 7 0
S_2172046802_ 76.2 3.3 4.14 7 0
S_2172046803_ 76.2 3.3 4.14 7 0
S_2172046804 76.2 3.3 4.14 7 0
S_2172046805 76.2 3.3 4.14 7 0
S_2172046806 76.2 3.3 4.14 7 0
S_2172046901 76.2 3.3 4.14 7 0
S_2172046902 76.2 3.3 4.14 7 0
S_2172046903 76.2 3.3 4.14 7 0
S_2172046904 76.2 3.3 4.14 7 0
S_2172046905 76.2 3.3 4.14 7 0
S_2172047001 76.2 3.3 4.14 7 0
S_2172047101 76.2 3.3 4.14 7 0
S_2172047102 76.2 3.3 4.14 7 0
S_2172047103 76.2 3.3 4.14 7 0
S_2172047104 76.2 3.3 4.14 7 0
S_2172047202 76.2 3.3 4.14 7 0
S_2172047204 76.2 3.3 4.14 7 0
S_2172047403 76.2 3.3 4.14 7 0
S_2172048101 76.2 3.3 4.14 7 0
S_2172048201 76.2 3.3 4.14 7 0
S_2172048202 76.2 3.3 4.14 7 0
S_2172048203 76.2 3.3 4.14 7 0
S_2172048304 76.2 3.3 4.14 7 0
S_2172048305 76.2 3.3 4.14 7 0
S_2172048306 76.2 3.3 4.14 7 0
S_2172048307 76.2 3.3 4.14 7 0
S_2172048401 76.2 3.3 4.14 7 0
S_2172048403 76.2 3.3 4.14 7 0
S_2172048405 76.2 3.3 4.14 7 0
S_2172048407 76.2 3.3 4.14 7 0
S_2172048408 76.2 3.3 4.14 7 0
S_2172049003 76.2 3.3 4.14 7 0
S_2172049301 76.2 3.3 4.14 7 0
S_2172049302 76.2 3.3 4.14 7 0
S_2172049303 76.2 3.3 4.14 7 0
S_2172049304 76.2 3.3 4.14 7 0
S_2172049401 76.2 3.3 4.14 7 0
S_2172049402 76.2 3.3 4.14 7 0
S_2172049403 76.2 3.3 4.14 7 0
S_2172049502 76.2 3.3 4.14 7 0
S_2172051102 76.2 3.3 4.14 7 0
S_2172051103 76.2 3.3 4.14 7 0
S_2172052101 76.2 3.3 4.14 7 0
S_2172052102 76.2 3.3 4.14 7 0
S_2172052103 76.2 3.3 4.14 7 0
S_2172052105 76.2 3.3 4.14 7 0
S_2172052106 76.2 3.3 4.14 7 0
S_2172052107 76.2 3.3 4.14 7 0
S_2172052108 76.2 3.3 4.14 7 0
S_2172052109 76.2 3.3 4.14 7 0
S_2172052110 76.2 3.3 4.14 7 0
S_2172052111 76.2 3.3 4.14 7 0
S_2172052112 76.2 3.3 4.14 7 0
S_2172052114 76.2 3.3 4.14 7 0
S_2172052201 76.2 3.3 4.14 7 0
S_2172052202 76.2 3.3 4.14 7 0
S_2172053201 76.2 3.3 4.14 7 0
S_2172053203 76.2 3.3 4.14 7 0
S_2172053204 76.2 3.3 4.14 7 0
S_2172053503 76.2 3.3 4.14 7 0
S_2172053602 76.2 3.3 4.14 7 0
S_2172054407 76.2 3.3 4.14 7 0
S_2172054409 76.2 3.3 4.14 7 0
S_2172054410 76.2 3.3 4.14 7 0
S_2172054501 76.2 3.3 4.14 7 0
S_2172054502 76.2 3.3 4.14 7 0
S_2172054503 76.2 3.3 4.14 7 0
S_2172054504 76.2 3.3 4.14 7 0
S_2172054506 76.2 3.3 4.14 7 0
S_2172055101 76.2 3.3 4.14 7 0
S_2172055701_ 76.2 3.3 4.14 7 0
S_2172056101 76.2 3.3 4.14 7 0
S_2172056102 76.2 3.3 4.14 7 0
S_2172056302 76.2 3.3 4.14 7 0
S_2172056305 76.2 3.3 4.14 7 0
S_2172056306 76.2 3.3 4.14 7 0
S_2172056403 76.2 3.3 4.14 7 0
S_2172056404 76.2 3.3 4.14 7 0
S_2172056405 76.2 3.3 4.14 7 0
S_2172056406 76.2 3.3 4.14 7 0
S_2172056501 76.2 3.3 4.14 7 0
S_2172056502 76.2 3.3 4.14 7 0
S_2172056503 76.2 3.3 4.14 7 0
S_2172056601 76.2 3.3 4.14 7 0
S_2172056601_ 76.2 3.3 4.14 7 0
S_2172056602 76.2 3.3 4.14 7 0
S_2172056602_ 76.2 3.3 4.14 7 0
S_2172056603 76.2 3.3 4.14 7 0
S_2172056603_ 76.2 3.3 4.14 7 0
S_2172057001 76.2 3.3 4.14 7 0
S_2172057002 76.2 3.3 4.14 7 0
S_2172057003 76.2 3.3 4.14 7 0
S_2172057004 76.2 3.3 4.14 7 0
S_2172057005 76.2 3.3 4.14 7 0
S_2172057101 76.2 3.3 4.14 7 0
S_2172057105 76.2 3.3 4.14 7 0
S_2172057301 76.2 3.3 4.14 7 0
S_2172057302 76.2 3.3 4.14 7 0
S_2172057305 76.2 3.3 4.14 7 0
S_2172057306 76.2 3.3 4.14 7 0
S_2172057307 76.2 3.3 4.14 7 0
S_2172057309 76.2 3.3 4.14 7 0
S_2172057402 76.2 3.3 4.14 7 0
S_2172057403 76.2 3.3 4.14 7 0
S_2172057404 76.2 3.3 4.14 7 0
S_2172057406 76.2 3.3 4.14 7 0
S_2172057501 76.2 3.3 4.14 7 0
S_2172057502 76.2 3.3 4.14 7 0
S_2172057601 76.2 3.3 4.14 7 0
S_2172057602 76.2 3.3 4.14 7 0
S_2172057603 76.2 3.3 4.14 7 0
S_2172058102 76.2 3.3 4.14 7 0
S_2172058401 76.2 3.3 4.14 7 0
S_2172058402 76.2 3.3 4.14 7 0
S_2172058403 76.2 3.3 4.14 7 0
S_2172058501 76.2 3.3 4.14 7 0
S_2172058502 76.2 3.3 4.14 7 0
S_2172058503 76.2 3.3 4.14 7 0
S_2172058602 76.2 3.3 4.14 7 0
S_2172058603 76.2 3.3 4.14 7 0
S_2172058604 76.2 3.3 4.14 7 0
S_2172058605 76.2 3.3 4.14 7 0
S_2172058606 76.2 3.3 4.14 7 0
S_2172058607 76.2 3.3 4.14 7 0
S_2172058608 76.2 3.3 4.14 7 0
S_2172059301 76.2 3.3 4.14 7 0
S_2172059302 76.2 3.3 4.14 7 0
S_2172059303 76.2 3.3 4.14 7 0
S_2172059402 76.2 3.3 4.14 7 0
S_2172059404 76.2 3.3 4.14 7 0
S_2172059405 76.2 3.3 4.14 7 0
S_2172059406 76.2 3.3 4.14 7 0
S_2172059501 76.2 3.3 4.14 7 0
S_2172059502 76.2 3.3 4.14 7 0
S_2172059503 76.2 3.3 4.14 7 0
S_2172059504 76.2 3.3 4.14 7 0
S_2172059604 76.2 3.3 4.14 7 0
S_2172059703 76.2 3.3 4.14 7 0
S_2173030105 76.2 3.3 4.14 7 0
S_2173030301 76.2 3.3 4.14 7 0
S_2173030302 76.2 3.3 4.14 7 0
S_2173030303 76.2 3.3 4.14 7 0
S_2173030304 76.2 3.3 4.14 7 0
S_2173030403 76.2 3.3 4.14 7 0
S_2173030405 76.2 3.3 4.14 7 0
S_2173030501 76.2 3.3 4.14 7 0
S_2173030502 76.2 3.3 4.14 7 0
S_2173030503 76.2 3.3 4.14 7 0
S_2173030504 76.2 3.3 4.14 7 0
S_2173030505 76.2 3.3 4.14 7 0
S_2173030506 76.2 3.3 4.14 7 0
S_2173030507 76.2 3.3 4.14 7 0
S_2173030601 76.2 3.3 4.14 7 0
S_2173030602 76.2 3.3 4.14 7 0
S_2173030603 76.2 3.3 4.14 7 0
S_2173030604 76.2 3.3 4.14 7 0
S_2173030605 76.2 3.3 4.14 7 0
S_2173030606 76.2 3.3 4.14 7 0
S_2173030607 76.2 3.3 4.14 7 0
S_2173030608 76.2 3.3 4.14 7 0
S_2173030701 76.2 3.3 4.14 7 0
S_2173030702 76.2 3.3 4.14 7 0
S_2173030703 76.2 3.3 4.14 7 0
S_2173030704 76.2 3.3 4.14 7 0
S_2173030705 76.2 3.3 4.14 7 0
S_2173030706 76.2 3.3 4.14 7 0
S_2173030801 76.2 3.3 4.14 7 0
S_2173030901 76.2 3.3 4.14 7 0
S_2173030902 76.2 3.3 4.14 7 0
S_2173031302 76.2 3.3 4.14 7 0
S_2173031304 76.2 3.3 4.14 7 0
S_2173031305 76.2 3.3 4.14 7 0
S_2173031306 76.2 3.3 4.14 7 0
S_2173031307 76.2 3.3 4.14 7 0
S_2173031308 76.2 3.3 4.14 7 0
S_2173031401 76.2 3.3 4.14 7 0
S_2173031402 76.2 3.3 4.14 7 0
S_2173031403 76.2 3.3 4.14 7 0
S_2173031404 76.2 3.3 4.14 7 0
S_2173031501 76.2 3.3 4.14 7 0
S_2173031505 76.2 3.3 4.14 7 0
S_2173031601 76.2 3.3 4.14 7 0
S_2173031701 76.2 3.3 4.14 7 0
S_2173031702 76.2 3.3 4.14 7 0
S_2173031703 76.2 3.3 4.14 7 0
S_2173031704 76.2 3.3 4.14 7 0
S_2173031705 76.2 3.3 4.14 7 0
S_2173031706 76.2 3.3 4.14 7 0
S_2173031707 76.2 3.3 4.14 7 0
S_2173031708 76.2 3.3 4.14 7 0
S_2173031801 76.2 3.3 4.14 7 0
S_2173031802 76.2 3.3 4.14 7 0
S_2173031803 76.2 3.3 4.14 7 0
S_2173031804 76.2 3.3 4.14 7 0
S_2173031805 76.2 3.3 4.14 7 0
S_2173031806 76.2 3.3 4.14 7 0
S_2173031807 76.2 3.3 4.14 7 0
S_2173031901 76.2 3.3 4.14 7 0
S_2173031902 76.2 3.3 4.14 7 0
S_2173031903 76.2 3.3 4.14 7 0
S_2173032201 76.2 3.3 4.14 7 0
S_2173032202 76.2 3.3 4.14 7 0
S_2173032205 76.2 3.3 4.14 7 0
S_2173032206 76.2 3.3 4.14 7 0
S_2173032207 76.2 3.3 4.14 7 0
S_2173032401 76.2 3.3 4.14 7 0
S_2173032801_ 76.2 3.3 4.14 7 0
S_2173033201 76.2 3.3 4.14 7 0
S_2173033202 76.2 3.3 4.14 7 0
S_2173033204 76.2 3.3 4.14 7 0
S_2173033207 76.2 3.3 4.14 7 0
S_2173033301 76.2 3.3 4.14 7 0
S_2173033302 76.2 3.3 4.14 7 0
S_2173033303 76.2 3.3 4.14 7 0
S_2173033402 76.2 3.3 4.14 7 0
S_2173033404 76.2 3.3 4.14 7 0
S_2173033501 76.2 3.3 4.14 7 0
S_2173033601 76.2 3.3 4.14 7 0
S_2173033602 76.2 3.3 4.14 7 0
S_2173033603 76.2 3.3 4.14 7 0
S_2173033604 76.2 3.3 4.14 7 0
S_2173033605 76.2 3.3 4.14 7 0
S_2173034201 76.2 3.3 4.14 7 0
S_2173034202 76.2 3.3 4.14 7 0
S_2173034203 76.2 3.3 4.14 7 0
S_2173034204 76.2 3.3 4.14 7 0
S_2173034205 76.2 3.3 4.14 7 0
S_2173034302 76.2 3.3 4.14 7 0
S_2173034303 76.2 3.3 4.14 7 0
S_2173034501 76.2 3.3 4.14 7 0
S_2173034502 76.2 3.3 4.14 7 0
S_2173034503 76.2 3.3 4.14 7 0
S_2173035301 76.2 3.3 4.14 7 0
S_2173035401 76.2 3.3 4.14 7 0
S_2173035401_ 76.2 3.3 4.14 7 0
S_2173035402 76.2 3.3 4.14 7 0
S_2173035501 76.2 3.3 4.14 7 0
S_2173035502 76.2 3.3 4.14 7 0
S_2173036501 76.2 3.3 4.14 7 0
S_2173036502 76.2 3.3 4.14 7 0
S_2173036503 76.2 3.3 4.14 7 0
S_2173036601_ 76.2 3.3 4.14 7 0
S_2173036602 76.2 3.3 4.14 7 0
S_2173036603 76.2 3.3 4.14 7 0
S_2173036604 76.2 3.3 4.14 7 0
S_2173036701 76.2 3.3 4.14 7 0
S_2173036702 76.2 3.3 4.14 7 0
S_2173036703 76.2 3.3 4.14 7 0
S_2173037801 76.2 3.3 4.14 7 0
S_2173037802 76.2 3.3 4.14 7 0
S_2173037901 76.2 3.3 4.14 7 0
S_2173038801 76.2 3.3 4.14 7 0
S_2173038901 76.2 3.3 4.14 7 0
S_2173038902 76.2 3.3 4.14 7 0
S_2173038903 76.2 3.3 4.14 7 0
S_2173038904 76.2 3.3 4.14 7 0
S_2173038905 76.2 3.3 4.14 7 0
S_2173039901 76.2 3.3 4.14 7 0
S_2173040001 76.2 3.3 4.14 7 0
S_2173040002 76.2 3.3 4.14 7 0
S_2173040101 76.2 3.3 4.14 7 0
S_2173040102 76.2 3.3 4.14 7 0
S_2173040501 76.2 3.3 4.14 7 0
S_2173041101 76.2 3.3 4.14 7 0
S_2173041102 76.2 3.3 4.14 7 0
S_2173041103 76.2 3.3 4.14 7 0
S_2173041104 76.2 3.3 4.14 7 0
S_2173041105 76.2 3.3 4.14 7 0
S_2173041201 76.2 3.3 4.14 7 0
S_2173041202 76.2 3.3 4.14 7 0
S_2173041401 76.2 3.3 4.14 7 0
S_2173041501 76.2 3.3 4.14 7 0
S_2173041502 76.2 3.3 4.14 7 0
S_2173041601 76.2 3.3 4.14 7 0
S_2173042001 76.2 3.3 4.14 7 0
S_2173042101 76.2 3.3 4.14 7 0
S_2173042302 76.2 3.3 4.14 7 0
S_2173042401 76.2 3.3 4.14 7 0
S_2173042403 76.2 3.3 4.14 7 0
S_2173042406 76.2 3.3 4.14 7 0
S_2173042601 76.2 3.3 4.14 7 0
S_2173042701 76.2 3.3 4.14 7 0
S_2173042801 76.2 3.3 4.14 7 0
S_2173042802 76.2 3.3 4.14 7 0
S_2173043003 76.2 3.3 4.14 7 0
S_2173043005 76.2 3.3 4.14 7 0
S_2173043203 76.2 3.3 4.14 7 0
S_2173043301 76.2 3.3 4.14 7 0
S_2173043302 76.2 3.3 4.14 7 0
S_2173043303 76.2 3.3 4.14 7 0
S_2173043304 76.2 3.3 4.14 7 0
S_2173043305 76.2 3.3 4.14 7 0
S_2173043401 76.2 3.3 4.14 7 0
S_2173043402 76.2 3.3 4.14 7 0
S_2173043403 76.2 3.3 4.14 7 0
S_2173043404 76.2 3.3 4.14 7 0
S_2173043405 76.2 3.3 4.14 7 0
S_2173043406 76.2 3.3 4.14 7 0
S_2173043504 76.2 3.3 4.14 7 0
S_2173043506 76.2 3.3 4.14 7 0
S_2173043601 76.2 3.3 4.14 7 0
S_2173043901 76.2 3.3 4.14 7 0
S_2173043902 76.2 3.3 4.14 7 0
S_2173044101 76.2 3.3 4.14 7 0
S_2173044102 76.2 3.3 4.14 7 0
S_2173044103 76.2 3.3 4.14 7 0
S_2173044106 76.2 3.3 4.14 7 0
S_2173044201 76.2 3.3 4.14 7 0
S_2173044202 76.2 3.3 4.14 7 0
S_2173044203 76.2 3.3 4.14 7 0
S_2173044204 76.2 3.3 4.14 7 0
S_2173044301 76.2 3.3 4.14 7 0
S_2173044302 76.2 3.3 4.14 7 0
S_2173044303 76.2 3.3 4.14 7 0
S_2173044304 76.2 3.3 4.14 7 0
S_2173044305 76.2 3.3 4.14 7 0
S_2173044306 76.2 3.3 4.14 7 0
S_2173044401 76.2 3.3 4.14 7 0
S_2173044402 76.2 3.3 4.14 7 0
S_2173044403 76.2 3.3 4.14 7 0
S_2173044404 76.2 3.3 4.14 7 0
S_2173044405 76.2 3.3 4.14 7 0
S_2173044406 76.2 3.3 4.14 7 0
S_2173044502 76.2 3.3 4.14 7 0
S_2173044504 76.2 3.3 4.14 7 0
S_2173044505 76.2 3.3 4.14 7 0
S_2173044506 76.2 3.3 4.14 7 0
S_2173044507 76.2 3.3 4.14 7 0
S_2173044601 76.2 3.3 4.14 7 0
S_2173044602 76.2 3.3 4.14 7 0
S_2173045101 76.2 3.3 4.14 7 0
S_2173045102 76.2 3.3 4.14 7 0
S_2173045103 76.2 3.3 4.14 7 0
S_2173045104 76.2 3.3 4.14 7 0
S_2173045105 76.2 3.3 4.14 7 0
S_2173045201 76.2 3.3 4.14 7 0
S_2173045202 76.2 3.3 4.14 7 0
S_2173045203 76.2 3.3 4.14 7 0
S_2173045204 76.2 3.3 4.14 7 0
S_2173045205 76.2 3.3 4.14 7 0
S_2173045210 76.2 3.3 4.14 7 0
S_2173045301 76.2 3.3 4.14 7 0
S_2173045302 76.2 3.3 4.14 7 0
S_2173045303 76.2 3.3 4.14 7 0
S_2173045304 76.2 3.3 4.14 7 0
S_2173045305 76.2 3.3 4.14 7 0
S_2173045306 76.2 3.3 4.14 7 0
S_2173045401 76.2 3.3 4.14 7 0
S_2173045402 76.2 3.3 4.14 7 0
S_2173045501 76.2 3.3 4.14 7 0
S_2173045502 76.2 3.3 4.14 7 0
S_2173045503 76.2 3.3 4.14 7 0
S_2173045504 76.2 3.3 4.14 7 0
S_2173045505 76.2 3.3 4.14 7 0
S_2173045603 76.2 3.3 4.14 7 0
S_2173045604 76.2 3.3 4.14 7 0
S_2173045901 76.2 3.3 4.14 7 0
S_2173046104 76.2 3.3 4.14 7 0
S_2173046106 76.2 3.3 4.14 7 0
S_2173046203 76.2 3.3 4.14 7 0
S_2173046301 76.2 3.3 4.14 7 0
S_2173046401 76.2 3.3 4.14 7 0
S_2173046402 76.2 3.3 4.14 7 0
S_2173046403 76.2 3.3 4.14 7 0
S_2173046404 76.2 3.3 4.14 7 0
S_2173046405 76.2 3.3 4.14 7 0
S_2173046406 76.2 3.3 4.14 7 0
S_2173046409 76.2 3.3 4.14 7 0
S_2173046410 76.2 3.3 4.14 7 0
S_2173046412 76.2 3.3 4.14 7 0
S_2173046413 76.2 3.3 4.14 7 0
S_2173046414 76.2 3.3 4.14 7 0
S_2173046501 76.2 3.3 4.14 7 0
S_2173046601 76.2 3.3 4.14 7 0
S_2173046602 76.2 3.3 4.14 7 0
S_2173046603 76.2 3.3 4.14 7 0
S_2173046707 76.2 3.3 4.14 7 0
S_2173046709 76.2 3.3 4.14 7 0
S_2173046901 76.2 3.3 4.14 7 0
S_2173046902 76.2 3.3 4.14 7 0
S_2173047001 76.2 3.3 4.14 7 0
S_2173047002 76.2 3.3 4.14 7 0
S_2173047003 76.2 3.3 4.14 7 0
S_2173047004 76.2 3.3 4.14 7 0
S_2173047005 76.2 3.3 4.14 7 0
S_2173047101 76.2 3.3 4.14 7 0
S_2173047102 76.2 3.3 4.14 7 0
S_2173047103 76.2 3.3 4.14 7 0
S_2173047104 76.2 3.3 4.14 7 0
S_2173047105 76.2 3.3 4.14 7 0
S_2173047301 76.2 3.3 4.14 7 0
S_2173047302 76.2 3.3 4.14 7 0
S_2173047402 76.2 3.3 4.14 7 0
S_2173047501 76.2 3.3 4.14 7 0
S_2173047502 76.2 3.3 4.14 7 0
S_2173047503 76.2 3.3 4.14 7 0
S_2173047504 76.2 3.3 4.14 7 0
S_2173047505 76.2 3.3 4.14 7 0
S_2173047506 76.2 3.3 4.14 7 0
S_2173047601 76.2 3.3 4.14 7 0
S_2173047602 76.2 3.3 4.14 7 0
S_2173047603 76.2 3.3 4.14 7 0
S_2173047604 76.2 3.3 4.14 7 0
S_2173047701 76.2 3.3 4.14 7 0
S_2173047702 76.2 3.3 4.14 7 0
S_2173047703 76.2 3.3 4.14 7 0
S_2173047704 76.2 3.3 4.14 7 0
S_2173047801 76.2 3.3 4.14 7 0
S_2173047802 76.2 3.3 4.14 7 0
S_2173047803 76.2 3.3 4.14 7 0
S_2173047804 76.2 3.3 4.14 7 0
S_2173047805 76.2 3.3 4.14 7 0
S_2173047902 76.2 3.3 4.14 7 0
S_2173047903 76.2 3.3 4.14 7 0
S_2173047904 76.2 3.3 4.14 7 0
S_2173048001 76.2 3.3 4.14 7 0
S_2173048002 76.2 3.3 4.14 7 0
S_2173048003 76.2 3.3 4.14 7 0
S_2173048004 76.2 3.3 4.14 7 0
S_2173048005 76.2 3.3 4.14 7 0
S_2173048006 76.2 3.3 4.14 7 0
S_2173048007 76.2 3.3 4.14 7 0
S_2173048008 76.2 3.3 4.14 7 0
S_2173048101 76.2 3.3 4.14 7 0
S_2173048102 76.2 3.3 4.14 7 0
S_2173048103 76.2 3.3 4.14 7 0
S_2173048104 76.2 3.3 4.14 7 0
S_2173048106 76.2 3.3 4.14 7 0
S_2173048201 76.2 3.3 4.14 7 0
S_2173048204 76.2 3.3 4.14 7 0
S_2173048303 76.2 3.3 4.14 7 0
S_2173048305 76.2 3.3 4.14 7 0
S_2173048403 76.2 3.3 4.14 7 0
S_2173048503 76.2 3.3 4.14 7 0
S_2173048601 76.2 3.3 4.14 7 0
S_2173048602 76.2 3.3 4.14 7 0
S_2173048603 76.2 3.3 4.14 7 0
S_2173048604 76.2 3.3 4.14 7 0
S_2173048701 76.2 3.3 4.14 7 0
S_2173048702 76.2 3.3 4.14 7 0
S_2173048703 76.2 3.3 4.14 7 0
S_2173048704 76.2 3.3 4.14 7 0
S_2173048705 76.2 3.3 4.14 7 0
S_2173048801 76.2 3.3 4.14 7 0
S_2173048802 76.2 3.3 4.14 7 0
S_2173048803 76.2 3.3 4.14 7 0
S_2173048901 76.2 3.3 4.14 7 0
S_2173048902 76.2 3.3 4.14 7 0
S_2173048903 76.2 3.3 4.14 7 0
S_2173048904 76.2 3.3 4.14 7 0
S_2173049001 76.2 3.3 4.14 7 0
S_2173049002 76.2 3.3 4.14 7 0
S_2173049201 76.2 3.3 4.14 7 0
S_2173049202 76.2 3.3 4.14 7 0
S_2173049203 76.2 3.3 4.14 7 0
S_2173049204 76.2 3.3 4.14 7 0
S_2173049205 76.2 3.3 4.14 7 0
S_2173049206 76.2 3.3 4.14 7 0
S_2173049207 76.2 3.3 4.14 7 0
S_2173049301 76.2 3.3 4.14 7 0
S_2173049302 76.2 3.3 4.14 7 0
S_2173049303 76.2 3.3 4.14 7 0
S_2173049304 76.2 3.3 4.14 7 0
S_2173049401 76.2 3.3 4.14 7 0
S_2173049402 76.2 3.3 4.14 7 0
S_2173049403 76.2 3.3 4.14 7 0
S_2173049404 76.2 3.3 4.14 7 0
S_2173049405 76.2 3.3 4.14 7 0
S_2173049501 76.2 3.3 4.14 7 0
S_2173049601 76.2 3.3 4.14 7 0
S_2173049602 76.2 3.3 4.14 7 0
S_2173049603 76.2 3.3 4.14 7 0
S_2173049701 76.2 3.3 4.14 7 0
S_2173049702 76.2 3.3 4.14 7 0
S_2173049801 76.2 3.3 4.14 7 0
S_2173049802 76.2 3.3 4.14 7 0
S_2173049803 76.2 3.3 4.14 7 0
S_2173049804 76.2 3.3 4.14 7 0
S_2173049805 76.2 3.3 4.14 7 0
S_2173049806 76.2 3.3 4.14 7 0
S_2173049807 76.2 3.3 4.14 7 0
S_2173049808 76.2 3.3 4.14 7 0
S_2173049901 76.2 3.3 4.14 7 0
S_2173049902 76.2 3.3 4.14 7 0
S_2173049903 76.2 3.3 4.14 7 0
S_2173049904 76.2 3.3 4.14 7 0
S_2173049905 76.2 3.3 4.14 7 0
S_2173050301 76.2 3.3 4.14 7 0
S_2173050301_ 76.2 3.3 4.14 7 0
S_2173050302 76.2 3.3 4.14 7 0
S_2173050401 76.2 3.3 4.14 7 0
S_2173050601 76.2 3.3 4.14 7 0
S_2173051401 76.2 3.3 4.14 7 0
S_2173051402 76.2 3.3 4.14 7 0
S_2173051501 76.2 3.3 4.14 7 0
S_2173051502 76.2 3.3 4.14 7 0
S_2173052501 76.2 3.3 4.14 7 0
S_2173052502 76.2 3.3 4.14 7 0
S_2173053001 76.2 3.3 4.14 7 0
S_2173053002 76.2 3.3 4.14 7 0
S_2173053101 76.2 3.3 4.14 7 0
S_2173053201 76.2 3.3 4.14 7 0
S_2173053202 76.2 3.3 4.14 7 0
S_2173053203 76.2 3.3 4.14 7 0
S_2173053301 76.2 3.3 4.14 7 0
S_2173053401 76.2 3.3 4.14 7 0
S_2173053402 76.2 3.3 4.14 7 0
S_2173053403 76.2 3.3 4.14 7 0
S_2173054101 76.2 3.3 4.14 7 0
S_2173054201 76.2 3.3 4.14 7 0
S_2173054202 76.2 3.3 4.14 7 0
S_2173054301 76.2 3.3 4.14 7 0
S_2173054401 76.2 3.3 4.14 7 0
S_2173054505 76.2 3.3 4.14 7 0
S_2173054506 76.2 3.3 4.14 7 0
S_2173054507 76.2 3.3 4.14 7 0
S_2173054508 76.2 3.3 4.14 7 0
S_2173054509 76.2 3.3 4.14 7 0
S_2173054510 76.2 3.3 4.14 7 0
S_2173054511 76.2 3.3 4.14 7 0
S_2173054512 76.2 3.3 4.14 7 0
S_2173054513 76.2 3.3 4.14 7 0
S_2173054601 76.2 3.3 4.14 7 0
S_2173054602 76.2 3.3 4.14 7 0
S_2173054603 76.2 3.3 4.14 7 0
S_2173054604 76.2 3.3 4.14 7 0
S_2173054605 76.2 3.3 4.14 7 0
S_2173054606 76.2 3.3 4.14 7 0
S_2173054607 76.2 3.3 4.14 7 0
S_2173054608 76.2 3.3 4.14 7 0
S_2173054609 76.2 3.3 4.14 7 0
S_2173054610 76.2 3.3 4.14 7 0
S_2173054611 76.2 3.3 4.14 7 0
S_2173055401 76.2 3.3 4.14 7 0
S_2173055503 76.2 3.3 4.14 7 0
S_2173055505 76.2 3.3 4.14 7 0
S_2173055506 76.2 3.3 4.14 7 0
S_2173055507 76.2 3.3 4.14 7 0
S_2173055601 76.2 3.3 4.14 7 0
S_2173055602 76.2 3.3 4.14 7 0
S_2173055603 76.2 3.3 4.14 7 0
S_2173055604 76.2 3.3 4.14 7 0
S_2173055605 76.2 3.3 4.14 7 0
S_2173055606 76.2 3.3 4.14 7 0
S_2173056601 76.2 3.3 4.14 7 0
S_2173056602 76.2 3.3 4.14 7 0
S_2173056701 76.2 3.3 4.14 7 0
S_2173057001 76.2 3.3 4.14 7 0
S_2173057005 76.2 3.3 4.14 7 0
S_2173058001 76.2 3.3 4.14 7 0
S_2173058003 76.2 3.3 4.14 7 0
S_2173058005 76.2 3.3 4.14 7 0
S_2173058007 76.2 3.3 4.14 7 0
S_2173058101 76.2 3.3 4.14 7 0
S_2173058102 76.2 3.3 4.14 7 0
S_2173058103 76.2 3.3 4.14 7 0
S_2173058106 76.2 3.3 4.14 7 0
S_2173058203 76.2 3.3 4.14 7 0
S_2173058205 76.2 3.3 4.14 7 0
S_2173058206 76.2 3.3 4.14 7 0
S_2173058301 76.2 3.3 4.14 7 0
S_2173058303 76.2 3.3 4.14 7 0
S_2173058305 76.2 3.3 4.14 7 0
S_2173058306 76.2 3.3 4.14 7 0
S_2173058308 76.2 3.3 4.14 7 0
S_2173058401 76.2 3.3 4.14 7 0
S_2173058402 76.2 3.3 4.14 7 0
S_2173059001 76.2 3.3 4.14 7 0
S_2173059002 76.2 3.3 4.14 7 0
S_2173059003 76.2 3.3 4.14 7 0
S_2173059004 76.2 3.3 4.14 7 0
S_2173059005 76.2 3.3 4.14 7 0
S_2173059006 76.2 3.3 4.14 7 0
S_2173059007 76.2 3.3 4.14 7 0
S_2173059103 76.2 3.3 4.14 7 0
S_2173059104 76.2 3.3 4.14 7 0
S_2173059105 76.2 3.3 4.14 7 0
S_2173059201 76.2 3.3 4.14 7 0
S_2173059202 76.2 3.3 4.14 7 0
S_2173059204 76.2 3.3 4.14 7 0
S_2173059301 76.2 3.3 4.14 7 0
S_2173059401 76.2 3.3 4.14 7 0
S_2173059402 76.2 3.3 4.14 7 0
S_2173059403 76.2 3.3 4.14 7 0
S_2173059404 76.2 3.3 4.14 7 0
S_2173059405 76.2 3.3 4.14 7 0
S_2173059406 76.2 3.3 4.14 7 0
S_2173059407 76.2 3.3 4.14 7 0
S_2173059408 76.2 3.3 4.14 7 0
S_2173059501 76.2 3.3 4.14 7 0
S_2173059502 76.2 3.3 4.14 7 0
S_2173059503 76.2 3.3 4.14 7 0
S_2173059504 76.2 3.3 4.14 7 0
S_2173059505 76.2 3.3 4.14 7 0
S_2173059601 76.2 3.3 4.14 7 0
S_2174031101 76.2 3.3 4.14 7 0
S_2174031203 76.2 3.3 4.14 7 0
S_2174031306 76.2 3.3 4.14 7 0
S_2174031405 76.2 3.3 4.14 7 0
S_2174031701 76.2 3.3 4.14 7 0
S_2174031704 76.2 3.3 4.14 7 0
S_2174032201 76.2 3.3 4.14 7 0
S_2174032202 76.2 3.3 4.14 7 0
S_2174032203 76.2 3.3 4.14 7 0
S_2174032303 76.2 3.3 4.14 7 0
S_2174032304 76.2 3.3 4.14 7 0
S_2174032305 76.2 3.3 4.14 7 0
S_2174032306 76.2 3.3 4.14 7 0
S_2174032307 76.2 3.3 4.14 7 0
S_2174032601 76.2 3.3 4.14 7 0
S_2174033201 76.2 3.3 4.14 7 0
S_2174033202 76.2 3.3 4.14 7 0
S_2174033203 76.2 3.3 4.14 7 0
S_2174033204 76.2 3.3 4.14 7 0
S_2174033205 76.2 3.3 4.14 7 0
S_2174033206 76.2 3.3 4.14 7 0
S_2174033207 76.2 3.3 4.14 7 0
S_2174033301 76.2 3.3 4.14 7 0
S_2174033302 76.2 3.3 4.14 7 0
S_2174033304 76.2 3.3 4.14 7 0
S_2174033306 76.2 3.3 4.14 7 0
S_2174033308 76.2 3.3 4.14 7 0
S_2174033309 76.2 3.3 4.14 7 0
S_2174033310 76.2 3.3 4.14 7 0
S_2174040001 76.2 3.3 4.14 7 0
S_2174040102 76.2 3.3 4.14 7 0
S_2174040103 76.2 3.3 4.14 7 0
S_2174040104 76.2 3.3 4.14 7 0
S_2174040105 76.2 3.3 4.14 7 0
S_2174040106 76.2 3.3 4.14 7 0
S_2174040107 76.2 3.3 4.14 7 0
S_2174040201 76.2 3.3 4.14 7 0
S_2174040202 76.2 3.3 4.14 7 0
S_2174040203 76.2 3.3 4.14 7 0
S_2174040204 76.2 3.3 4.14 7 0
S_2174040301 76.2 3.3 4.14 7 0
S_2174040302 76.2 3.3 4.14 7 0
S_2174040303 76.2 3.3 4.14 7 0
S_2174040401 76.2 3.3 4.14 7 0
S_2174040402 76.2 3.3 4.14 7 0
S_2174040403 76.2 3.3 4.14 7 0
S_2174040404 76.2 3.3 4.14 7 0
S_2174040405 76.2 3.3 4.14 7 0
S_2174040502 76.2 3.3 4.14 7 0
S_2174040601 76.2 3.3 4.14 7 0
S_2174040602 76.2 3.3 4.14 7 0
S_2174040603 76.2 3.3 4.14 7 0
S_2174040701 76.2 3.3 4.14 7 0
S_2174040702 76.2 3.3 4.14 7 0
S_2174040703 76.2 3.3 4.14 7 0
S_2174040704 76.2 3.3 4.14 7 0
S_2174040705 76.2 3.3 4.14 7 0
S_2174040706 76.2 3.3 4.14 7 0
S_2174040901 76.2 3.3 4.14 7 0
S_2174040902 76.2 3.3 4.14 7 0
S_2174040904 76.2 3.3 4.14 7 0
S_2174040905 76.2 3.3 4.14 7 0
S_2174040906 76.2 3.3 4.14 7 0
S_2174040907 76.2 3.3 4.14 7 0
S_2174040908 76.2 3.3 4.14 7 0
S_2174041101 76.2 3.3 4.14 7 0
S_2174041102 76.2 3.3 4.14 7 0
S_2174041103 76.2 3.3 4.14 7 0
S_2174041104 76.2 3.3 4.14 7 0
S_2174041105 76.2 3.3 4.14 7 0
S_2174041201 76.2 3.3 4.14 7 0
S_2174041202 76.2 3.3 4.14 7 0
S_2174041203 76.2 3.3 4.14 7 0
S_2174041204 76.2 3.3 4.14 7 0
S_2174041205 76.2 3.3 4.14 7 0
S_2174041206 76.2 3.3 4.14 7 0
S_2174041207 76.2 3.3 4.14 7 0
S_2174041208 76.2 3.3 4.14 7 0
S_2174041301 76.2 3.3 4.14 7 0
S_2174041302 76.2 3.3 4.14 7 0
S_2174041303 76.2 3.3 4.14 7 0
S_2174041304 76.2 3.3 4.14 7 0
S_2174041305 76.2 3.3 4.14 7 0
S_2174041401 76.2 3.3 4.14 7 0
S_2174041402 76.2 3.3 4.14 7 0
S_2174041403 76.2 3.3 4.14 7 0
S_2174041404 76.2 3.3 4.14 7 0
S_2174041405 76.2 3.3 4.14 7 0
S_2174041501 76.2 3.3 4.14 7 0
S_2174041502 76.2 3.3 4.14 7 0
S_2174041503 76.2 3.3 4.14 7 0
S_2174041504 76.2 3.3 4.14 7 0
S_2174041601 76.2 3.3 4.14 7 0
S_2174041602 76.2 3.3 4.14 7 0
S_2174041603 76.2 3.3 4.14 7 0
S_2174041704 76.2 3.3 4.14 7 0
S_2174041705 76.2 3.3 4.14 7 0
S_2174041801 76.2 3.3 4.14 7 0
S_2174041803 76.2 3.3 4.14 7 0
S_2174041806 76.2 3.3 4.14 7 0
S_2174041807 76.2 3.3 4.14 7 0
S_2174041901 76.2 3.3 4.14 7 0
S_2174042201 76.2 3.3 4.14 7 0
S_2174042202 76.2 3.3 4.14 7 0
S_2174042203 76.2 3.3 4.14 7 0
S_2174042204 76.2 3.3 4.14 7 0
S_2174042301 76.2 3.3 4.14 7 0
S_2174042302 76.2 3.3 4.14 7 0
S_2174042303 76.2 3.3 4.14 7 0
S_2174042401 76.2 3.3 4.14 7 0
S_2174042402 76.2 3.3 4.14 7 0
S_2174042403 76.2 3.3 4.14 7 0
S_2174042404 76.2 3.3 4.14 7 0
S_2174042501 76.2 3.3 4.14 7 0
S_2174042502 76.2 3.3 4.14 7 0
S_2174042604 76.2 3.3 4.14 7 0
S_2174042605 76.2 3.3 4.14 7 0
S_2174042704 76.2 3.3 4.14 7 0
S_2174042901 76.2 3.3 4.14 7 0
S_2174042902 76.2 3.3 4.14 7 0
S_2174042903 76.2 3.3 4.14 7 0
S_2174042904 76.2 3.3 4.14 7 0
S_2174042905 76.2 3.3 4.14 7 0
S_2174042906 76.2 3.3 4.14 7 0
S_2174042907 76.2 3.3 4.14 7 0
S_2174043203 76.2 3.3 4.14 7 0
S_2174043301 76.2 3.3 4.14 7 0
S_2174043302 76.2 3.3 4.14 7 0
S_2174043303 76.2 3.3 4.14 7 0
S_2174043401 76.2 3.3 4.14 7 0
S_2174043402 76.2 3.3 4.14 7 0
S_2174043403 76.2 3.3 4.14 7 0
S_2174043501 76.2 3.3 4.14 7 0
S_2174043502 76.2 3.3 4.14 7 0
S_2174043701 76.2 3.3 4.14 7 0
S_2174043801 76.2 3.3 4.14 7 0
S_2174043802 76.2 3.3 4.14 7 0
S_2174043803 76.2 3.3 4.14 7 0
S_2174043901 76.2 3.3 4.14 7 0
S_2174043902 76.2 3.3 4.14 7 0
S_2174043903 76.2 3.3 4.14 7 0
S_2174043904 76.2 3.3 4.14 7 0
S_2174043905 76.2 3.3 4.14 7 0
S_2174050001 76.2 3.3 4.14 7 0
S_2174050002 76.2 3.3 4.14 7 0
S_2174050003 76.2 3.3 4.14 7 0
S_2174050004 76.2 3.3 4.14 7 0
S_2174050101 76.2 3.3 4.14 7 0
S_2174050102 76.2 3.3 4.14 7 0
S_2174050103 76.2 3.3 4.14 7 0
S_2174050104 76.2 3.3 4.14 7 0
S_2174050105 76.2 3.3 4.14 7 0
S_2174050106 76.2 3.3 4.14 7 0
S_2174050202 76.2 3.3 4.14 7 0
S_2174050203 76.2 3.3 4.14 7 0
S_2174050204 76.2 3.3 4.14 7 0
S_2174050205 76.2 3.3 4.14 7 0
S_2174050304 76.2 3.3 4.14 7 0
S_2174050305 76.2 3.3 4.14 7 0
S_2174050401 76.2 3.3 4.14 7 0
S_2174050405 76.2 3.3 4.14 7 0
S_2174050501 76.2 3.3 4.14 7 0
S_2174050502 76.2 3.3 4.14 7 0
S_2174050503 76.2 3.3 4.14 7 0
S_2174050504 76.2 3.3 4.14 7 0
S_2174050505 76.2 3.3 4.14 7 0
S_2174050506 76.2 3.3 4.14 7 0
S_2174050507 76.2 3.3 4.14 7 0
S_2174050508 76.2 3.3 4.14 7 0
S_2174050509 76.2 3.3 4.14 7 0
S_2174050510 76.2 3.3 4.14 7 0
S_2174050511 76.2 3.3 4.14 7 0
S_2174050601 76.2 3.3 4.14 7 0
S_2174050602 76.2 3.3 4.14 7 0
S_2174050603 76.2 3.3 4.14 7 0
S_2174050604 76.2 3.3 4.14 7 0
S_2174050605 76.2 3.3 4.14 7 0
S_2174050606 76.2 3.3 4.14 7 0
S_2174050607 76.2 3.3 4.14 7 0
S_2174050608 76.2 3.3 4.14 7 0
S_2174050702 76.2 3.3 4.14 7 0
S_2174051001 76.2 3.3 4.14 7 0
S_2174051002 76.2 3.3 4.14 7 0
S_2174051003 76.2 3.3 4.14 7 0
S_2174051004 76.2 3.3 4.14 7 0
S_2174051005 76.2 3.3 4.14 7 0
S_2174051101 76.2 3.3 4.14 7 0
S_2174051102 76.2 3.3 4.14 7 0
S_2174051201 76.2 3.3 4.14 7 0
S_2174051202 76.2 3.3 4.14 7 0
S_2174051203 76.2 3.3 4.14 7 0
S_2174051301 76.2 3.3 4.14 7 0
S_2174051302 76.2 3.3 4.14 7 0
S_2174051303 76.2 3.3 4.14 7 0
S_2174051304 76.2 3.3 4.14 7 0
S_2174051402 76.2 3.3 4.14 7 0
S_2174051403 76.2 3.3 4.14 7 0
S_2174051601 76.2 3.3 4.14 7 0
S_2174051602 76.2 3.3 4.14 7 0
S_2174051603 76.2 3.3 4.14 7 0
S_2174051604 76.2 3.3 4.14 7 0
S_2174051701 76.2 3.3 4.14 7 0
S_2174052001 76.2 3.3 4.14 7 0
S_2174052002 76.2 3.3 4.14 7 0
S_2174052003 76.2 3.3 4.14 7 0
S_2174052004 76.2 3.3 4.14 7 0
S_2174052101 76.2 3.3 4.14 7 0
S_2174052101_ 76.2 3.3 4.14 7 0
S_2174052102 76.2 3.3 4.14 7 0
S_2174052103 76.2 3.3 4.14 7 0
S_2174052201 76.2 3.3 4.14 7 0
S_2174052202 76.2 3.3 4.14 7 0
S_2174052203 76.2 3.3 4.14 7 0
S_2174052204 76.2 3.3 4.14 7 0
S_2174052205 76.2 3.3 4.14 7 0
S_2174052301 76.2 3.3 4.14 7 0
S_2174052302 76.2 3.3 4.14 7 0
S_2174052303 76.2 3.3 4.14 7 0
S_2174052402 76.2 3.3 4.14 7 0
S_2174052403 76.2 3.3 4.14 7 0
S_2174052404 76.2 3.3 4.14 7 0
S_2174052405 76.2 3.3 4.14 7 0
S_2174052406 76.2 3.3 4.14 7 0
S_2174052407 76.2 3.3 4.14 7 0
S_2174052408 76.2 3.3 4.14 7 0
S_2174052501_ 76.2 3.3 4.14 7 0
S_2174052502_ 76.2 3.3 4.14 7 0
S_2174052503 76.2 3.3 4.14 7 0
S_2174052504 76.2 3.3 4.14 7 0
S_2174052505 76.2 3.3 4.14 7 0
S_2174052601 76.2 3.3 4.14 7 0
S_2174052601_ 76.2 3.3 4.14 7 0
S_2174052602 76.2 3.3 4.14 7 0
S_2174053001 76.2 3.3 4.14 7 0
S_2174053001_ 76.2 3.3 4.14 7 0
S_2174053002 76.2 3.3 4.14 7 0
S_2174053002_ 76.2 3.3 4.14 7 0
S_2174053101 76.2 3.3 4.14 7 0
S_2174053102 76.2 3.3 4.14 7 0
S_2174053201 76.2 3.3 4.14 7 0
S_2174053202 76.2 3.3 4.14 7 0
S_2174053203 76.2 3.3 4.14 7 0
S_2174053204 76.2 3.3 4.14 7 0
S_2174053205 76.2 3.3 4.14 7 0
S_2174053206 76.2 3.3 4.14 7 0
S_2174053207 76.2 3.3 4.14 7 0
S_2174053301 76.2 3.3 4.14 7 0
S_2174053301_ 76.2 3.3 4.14 7 0
S_2174053302 76.2 3.3 4.14 7 0
S_2174053303 76.2 3.3 4.14 7 0
S_2174053304 76.2 3.3 4.14 7 0
S_2174053401 76.2 3.3 4.14 7 0
S_2174053401_ 76.2 3.3 4.14 7 0
S_2174053402 76.2 3.3 4.14 7 0
S_2174053402_ 76.2 3.3 4.14 7 0
S_2174053403 76.2 3.3 4.14 7 0
S_2174053403_ 76.2 3.3 4.14 7 0
S_2174053501 76.2 3.3 4.14 7 0
S_2174053501_ 76.2 3.3 4.14 7 0
S_2174053502 76.2 3.3 4.14 7 0
S_2174053503 76.2 3.3 4.14 7 0
S_2174053504 76.2 3.3 4.14 7 0
S_2174053505 76.2 3.3 4.14 7 0
S_2174053506 76.2 3.3 4.14 7 0
S_2174053507 76.2 3.3 4.14 7 0
S_2174053601 76.2 3.3 4.14 7 0
S_2174053602 76.2 3.3 4.14 7 0
S_2174053603 76.2 3.3 4.14 7 0
S_2174053604 76.2 3.3 4.14 7 0
S_2174053605 76.2 3.3 4.14 7 0
S_2174053606 76.2 3.3 4.14 7 0

[JUNCTIONS]
;;Name Elevation MaxDepth InitDepth SurDepth Aponded
2171039212 25.571 1.772 0 0 1.50
2171039213 24.649 2.866 0 0 1.50
2171039214 23.500 3.799 0 0 1.50
2171039215 25.615 1.716 0 0 1.50
2171039216 25.910 1.406 0 0 1.50
2171039217 24.664 2.905 0 0 1.50
2171039218 25.710 1.582 0 0 1.50
2171039301 23.358 3.866 0 0 1.50
2171049801 27.450 1.382 0 0 1.50
2171049802 27.455 1.434 0 0 1.50
2171049803 27.178 1.671 0 0 1.50
2171049804 27.485 1.522 0 0 1.50
2172030101 25.801 1.881 0 0 1.50
2172030103 24.786 2.776 0 0 1.50
2172030104 25.861 1.804 0 0 1.50
2172030105 24.817 2.768 0 0 1.50
2172030106 25.888 1.768 0 0 1.50
2172030107 24.851 2.677 0 0 1.50
2172030109 24.886 2.645 0 0 1.50
2172030201 24.740 2.913 0 0 1.50
2172030301 23.365 3.989 0 0 1.50
2172030302 23.590 3.820 0 0 1.50
2172030303 23.365 4.048 0 0 1.50
2172030304 23.650 3.833 0 0 1.50
2172030305 23.366 4.033 0 0 1.50
2172030306 23.665 3.777 0 0 1.50
2172030402 23.366 4.116 0 0 1.50
2172030403 23.700 3.768 0 0 1.50
2172030505 27.189 1.123 0 0 1.50
2172030506 27.220 1.250 0 0 1.50
2172030601 27.246 1.179 0 0 1.50
2172030903 28.500 0.931 0 0 1.50
2172031301 26.231 1.853 0 0 1.50
2172031302 26.373 1.815 0 0 1.50
2172031401 23.366 4.130 0 0 1.50
2172031402 23.755 3.907 0 0 1.50
2172031403 23.366 4.041 0 0 1.50
2172031404 23.736 3.716 0 0 1.50
2172031405 25.609 2.002 0 0 1.50
2172031406 25.739 1.947 0 0 1.50
2172031407 23.771 3.789 0 0 1.50
2172031408 25.932 1.871 0 0 1.50
2172031409 26.049 1.864 0 0 1.50
2172031503 23.367 4.095 0 0 1.50
2172031505 23.367 4.124 0 0 1.50
2172031506 23.806 3.813 0 0 1.50
2172031601 27.300 1.668 0 0 1.50
2172031602 27.274 1.075 0 0 1.50
2172031604 27.000 1.284 0 0 1.50
2172031605 26.890 1.368 0 0 1.50
2172031801 27.431 1.739 0 0 1.50
2172031802 27.001 2.263 0 0 1.50
2172031901 27.900 1.503 0 0 1.50
2172031902 27.660 1.541 0 0 1.50
2172032301 26.630 1.939 0 0 1.50
2172032302 26.798 2.028 0 0 1.50
2172032303 27.000 1.375 0 0 1.50
2172032501 23.432 4.395 0 0 1.50
2172032502 23.834 3.678 0 0 1.50
2172032503 23.502 4.314 0 0 1.50
2172032504 23.862 3.737 0 0 1.50
2172032601 23.577 4.265 0 0 1.50
2172032602 24.002 3.455 0 0 1.50
2172032603 23.617 4.280 0 0 1.50
2172032604 24.062 3.692 0 0 1.50
2172032605 23.705 4.232 0 0 1.50
2172032606 24.141 3.594 0 0 1.50
2172032701 26.798 1.392 0 0 1.50
2172032702 26.670 1.399 0 0 1.50
2172032703 25.900 2.164 0 0 1.50
2172032704 26.583 1.391 0 0 1.50
2172032705 25.500 2.374 0 0 1.50
2172032706 26.332 1.568 0 0 1.50
2172032707 25.413 2.418 0 0 1.50
2172032708 26.407 1.588 0 0 1.50
2172032709 25.279 2.576 0 0 1.50
2172032710 26.497 1.648 0 0 1.50
2172032803 26.200 2.049 0 0 1.50
2172033601 23.737 4.142 0 0 1.50
2172033602 24.192 3.556 0 0 1.50
2172033603 23.822 4.215 0 0 1.50
2172033604 24.207 3.557 0 0 1.50
2172033701 25.161 2.500 0 0 1.50
2172033702 23.977 4.028 0 0 1.50
2172033703 24.212 3.578 0 0 1.50
2172033704 24.292 3.856 0 0 1.50
2172033705 24.277 3.800 0 0 1.50
2172033801 26.609 1.912 0 0 1.50
2172034701 24.306 3.783 0 0 1.50
2172034702 24.312 3.714 0 0 1.50
2172034801 24.317 3.771 0 0 1.50
2172034802 24.340 3.772 0 0 1.50
2172034803 24.322 3.770 0 0 1.50
2172034804 24.442 3.705 0 0 1.50
2172034805 24.332 3.745 0 0 1.50
2172034806 24.447 3.698 0 0 1.50
2172035701 24.633 3.289 0 0 1.50
2172035901 24.357 3.586 0 0 1.50
2172035902 24.480 3.568 0 0 1.50
2172035903 24.442 3.561 0 0 1.50
2172035904 24.512 3.474 0 0 1.50
2172035905 24.522 3.443 0 0 1.50
2172035906 24.632 3.381 0 0 1.50
2172036601 24.767 3.577 0 0 1.50
2172036602 25.841 2.484 0 0 1.50
2172036603 25.871 2.152 0 0 1.50
2172037001 26.645 1.405 0 0 1.50
2172037202 26.486 1.622 0 0 1.50
2172037204 26.412 1.488 0 0 1.50
2172037501 25.913 2.486 0 0 1.50
2172037502 25.952 2.621 0 0 1.50
2172037503 25.979 2.611 0 0 1.50
2172037701 27.000 1.175 0 0 1.50
2172038101 26.318 2.222 0 0 1.50
2172038102 26.332 2.200 0 0 1.50
2172038103 26.378 2.157 0 0 1.50
2172038104 26.960 1.883 0 0 1.50
2172038201 26.421 1.725 0 0 1.50
2172038202 26.541 2.154 0 0 1.50
2172038203 26.650 1.782 0 0 1.50
2172038302 26.298 2.090 0 0 1.50
2172038303 26.270 2.046 0 0 1.50
2172038306 26.613 1.752 0 0 1.50
2172038308 26.630 1.830 0 0 1.50
2172038403 26.248 2.027 0 0 1.50
2172038404 26.225 1.922 0 0 1.50
2172038406 26.190 2.005 0 0 1.50
2172038407 26.162 1.782 0 0 1.50
2172038501 26.008 2.318 0 0 1.50
2172038502 26.031 2.477 0 0 1.50
2172038503 26.397 1.603 0 0 1.50
2172038505 26.100 1.749 0 0 1.50
2172038506 26.417 1.583 0 0 1.50
2172038509 26.241 1.827 0 0 1.50
2172038512 26.297 1.721 0 0 1.50
2172038513 26.370 1.955 0 0 1.50
2172038514 26.586 1.464 0 0 1.50
2172038602 26.500 1.600 0 0 1.50
2172038701 26.952 1.354 0 0 1.50
2172038702 26.887 1.439 0 0 1.50
2172038703 26.832 1.410 0 0 1.50
2172038704 26.778 1.591 0 0 1.50
2172039101 27.205 1.746 0 0 1.50
2172039102 27.370 1.821 0 0 1.50
2172039104 27.860 1.713 0 0 1.50
2172039202 27.000 1.902 0 0 1.50
2172039203 27.646 0.856 0 0 1.50
2172039204 27.230 1.586 0 0 1.50
2172039205 27.755 0.888 0 0 1.50
2172039206 27.326 1.291 0 0 1.50
2172039302 26.726 1.744 0 0 1.50
2172039303 27.522 0.942 0 0 1.50
2172039304 27.268 1.031 0 0 1.50
2172039305 26.814 1.751 0 0 1.50
2172039306 27.334 1.032 0 0 1.50
2172039307 27.299 1.045 0 0 1.50
2172039308 27.354 0.957 0 0 1.50
2172039309 27.385 1.029 0 0 1.50
2172039310 27.442 1.095 0 0 1.50
2172039311 27.500 1.005 0 0 1.50
2172039401 27.348 1.167 0 0 1.50
2172039402 27.312 1.103 0 0 1.50
2172039403 27.265 1.262 0 0 1.50
2172039404 27.221 1.350 0 0 1.50
2172039405 26.908 1.697 0 0 1.50
2172039407 27.006 1.686 0 0 1.50
2172039501 26.490 1.570 0 0 1.50
2172039502 26.684 1.552 0 0 1.50
2172039503 26.878 1.285 0 0 1.50
2172039504 26.680 1.420 0 0 1.50
2172039506 26.998 1.368 0 0 1.50
2172039507 27.175 1.390 0 0 1.50
2172039508 27.136 1.429 0 0 1.50
2172039703 26.345 1.763 0 0 1.50
2172039704 26.405 1.873 0 0 1.50
2172039705 26.640 1.733 0 0 1.50
2172039706 26.845 1.630 0 0 1.50
2172040701 27.347 1.482 0 0 1.50
2172040702 27.500 1.168 0 0 1.50
2172040802 27.500 1.643 0 0 1.50
2172041709 27.600 2.080 0 0 1.50
2172041802 27.376 1.380 0 0 1.50
2172041902 27.738 1.226 0 0 1.50
2172041903 27.800 1.337 0 0 1.50
2172041905 27.763 1.283 0 0 1.50
2172041907 26.778 2.532 0 0 1.50
2172042301_ 28.750 1.058 0 0 1.50
2172042302_ 27.900 2.228 0 0 1.50
2172042401_ 28.675 1.243 0 0 1.50
2172042402 28.565 1.351 0 0 1.50
2172042403 28.380 1.497 0 0 1.50
2172042604 27.653 1.949 0 0 1.50
2172042605 27.880 1.874 0 0 1.50
2172042701 28.040 1.510 0 0 1.50
2172042702 27.800 1.478 0 0 1.50
2172042802 27.900 1.307 0 0 1.50
2172042901 26.800 2.755 0 0 1.50
2172042902 27.950 1.682 0 0 1.50
2172043301 28.700 1.066 0 0 1.50
2172043401 28.558 1.217 0 0 1.50
2172043401_ 28.285 1.605 0 0 1.50
2172043501 28.255 1.555 0 0 1.50
2172043502 27.784 2.026 0 0 1.50
2172043503 28.215 1.574 0 0 1.50
2172043504 28.075 1.677 0 0 1.50
2172043505 27.985 1.764 0 0 1.50
2172043506 27.866 1.868 0 0 1.50
2172043507 27.725 2.052 0 0 1.50
2172043508 27.760 1.943 0 0 1.50
2172043602 28.059 1.373 0 0 1.50
2172043603 28.250 1.301 0 0 1.50
2172043604 27.715 2.135 0 0 1.50
2172043605 27.670 1.831 0 0 1.50
2172043606 27.650 1.952 0 0 1.50
2172043607 27.683 2.456 0 0 1.50
2172043701 27.737 1.648 0 0 1.50
2172043702 27.727 1.592 0 0 1.50
2172043703 27.712 1.608 0 0 1.50
2172043704 27.812 1.629 0 0 1.50
2172043705 27.900 1.687 0 0 1.50
2172043706 28.500 1.318 0 0 1.50
2172043801 28.150 1.424 0 0 1.50
2172043802 27.687 1.681 0 0 1.50
2172043803 27.257 2.000 0 0 1.50
2172043804 27.022 2.006 0 0 1.50
2172043904 26.942 2.287 0 0 1.50
2172043905 26.247 2.951 0 0 1.50
2172043906 26.487 2.743 0 0 1.50
2172043907 26.712 2.454 0 0 1.50
2172044002 26.357 2.533 0 0 1.50
2172044103 26.552 2.454 0 0 1.50
2172044401 28.442 1.377 0 0 1.50
2172044402 28.355 1.450 0 0 1.50
2172044403 28.243 1.441 0 0 1.50
2172044601 28.101 1.541 0 0 1.50
2172044602 28.190 1.485 0 0 1.50
2172044603 27.830 1.639 0 0 1.50
2172044604 28.000 1.749 0 0 1.50
2172044605 28.298 1.429 0 0 1.50
2172044606 28.031 1.440 0 0 1.50
2172044607 28.420 1.394 0 0 1.50
2172044701 28.500 0.959 0 0 1.50
2172044702 28.254 1.294 0 0 1.50
2172044703 28.200 1.559 0 0 1.50
2172044704 27.916 1.752 0 0 1.50
2172044705 27.329 2.265 0 0 1.50
2172044706 26.747 2.936 0 0 1.50
2172044707 27.707 2.090 0 0 1.50
2172044902 26.964 2.091 0 0 1.50
2172044903 26.982 2.307 0 0 1.50
2172044905 26.322 2.842 0 0 1.50
2172044909 26.922 2.210 0 0 1.50
2172044910 27.002 2.209 0 0 1.50
2172045001 26.207 2.788 0 0 1.50
2172045002 26.087 2.501 0 0 1.50
2172045003 25.882 2.487 0 0 1.50
2172045701 27.537 2.147 0 0 1.50
2172045702 27.127 2.717 0 0 1.50
2172045704 27.757 2.065 0 0 1.50
2172045801 27.350 2.077 0 0 1.50
2172045802 28.200 1.566 0 0 1.50
2172045803 27.217 2.640 0 0 1.50
2172045804 27.287 2.459 0 0 1.50
2172045805 27.472 2.330 0 0 1.50
2172045806 27.974 1.889 0 0 1.50
2172045807 27.932 2.015 0 0 1.50
2172045808 27.922 1.906 0 0 1.50
2172045809 28.307 1.545 0 0 1.50
2172045810 27.947 1.901 0 0 1.50
2172045902 27.321 2.019 0 0 1.50
2172045904 27.527 1.948 0 0 1.50
2172045905 28.200 1.501 0 0 1.50
2172046001 24.977 2.937 0 0 1.50
2172046002 24.602 3.314 0 0 1.50
2172046003 24.673 3.172 0 0 1.50
2172046004 24.627 3.486 0 0 1.50
2172046005 24.677 3.195 0 0 1.50
2172046801_ 28.237 1.600 0 0 1.50
2172046802_ 28.413 1.583 0 0 1.50
2172046803_ 28.612 1.604 0 0 1.50
2172046804 28.532 1.266 0 0 1.50
2172046805 28.847 1.447 0 0 1.50
2172046806 29.200 1.199 0 0 1.50
2172046901 28.362 1.527 0 0 1.50
2172046902 28.602 1.019 0 0 1.50
2172046903 28.547 1.517 0 0 1.50
2172046904 28.897 0.927 0 0 1.50
2172046905 29.200 0.572 0 0 1.50
2172047001 24.887 3.007 0 0 1.50
2172047101 24.692 3.436 0 0 1.50
2172047102 24.737 3.629 0 0 1.50
2172047103 24.937 3.190 0 0 1.50
2172047104 24.962 3.261 0 0 1.50
2172047202 25.927 2.402 0 0 1.50
2172047204 25.777 2.282 0 0 1.50
2172047403 25.707 4.191 0 0 1.50
2172048101 25.293 3.188 0 0 1.50
2172048201 25.647 2.317 0 0 1.50
2172048202 25.168 3.057 0 0 1.50
2172048203 25.173 2.896 0 0 1.50
2172048304 25.954 2.243 0 0 1.50
2172048305 25.557 3.097 0 0 1.50
2172048306 25.176 2.955 0 0 1.50
2172048307 25.357 3.140 0 0 1.50
2172048401 25.617 3.627 0 0 1.50
2172048403 25.572 3.371 0 0 1.50
2172048405 26.627 2.039 0 0 1.50
2172048407 27.028 1.685 0 0 1.50
2172048408 26.857 1.898 0 0 1.50
2172049003 25.415 2.840 0 0 1.50
2172049301 25.179 3.049 0 0 1.50
2172049302 25.252 3.011 0 0 1.50
2172049303 25.202 2.930 0 0 1.50
2172049304 25.272 3.148 0 0 1.50
2172049401 27.112 1.668 0 0 1.50
2172049402 25.362 2.949 0 0 1.50
2172049403 25.402 3.032 0 0 1.50
2172049502 27.447 1.611 0 0 1.50
2172051102 27.890 2.154 0 0 1.50
2172051103 27.565 2.154 0 0 1.50
2172052101 27.225 2.542 0 0 1.50
2172052102 27.040 2.823 0 0 1.50
2172052103 27.000 2.895 0 0 1.50
2172052105 26.000 4.008 0 0 1.50
2172052106 26.460 3.463 0 0 1.50
2172052107 26.624 3.314 0 0 1.50
2172052108 27.417 2.583 0 0 1.50
2172052109 26.792 3.092 0 0 1.50
2172052110 27.600 2.406 0 0 1.50
2172052111 26.946 3.054 0 0 1.50
2172052112 27.740 2.286 0 0 1.50
2172052114 27.750 2.255 0 0 1.50
2172052201 27.079 2.791 0 0 1.50
2172052202 27.264 2.502 0 0 1.50
2172053201 27.760 2.116 0 0 1.50
2172053203 27.860 1.927 0 0 1.50
2172053204 28.160 1.630 0 0 1.50
2172053503 26.482 2.145 0 0 1.50
2172053602 26.647 1.866 0 0 1.50
2172054407 26.453 2.429 0 0 1.50
2172054409 26.762 2.105 0 0 1.50
2172054410 26.648 2.230 0 0 1.50
2172054501 26.455 2.100 0 0 1.50
2172054502 26.406 2.243 0 0 1.50
2172054503 26.524 2.185 0 0 1.50
2172054504 26.410 2.403 0 0 1.50
2172054506 26.387 2.476 0 0 1.50
2172055101 28.115 1.925 0 0 1.50
2172055701_ 28.450 0.791 0 0 1.50
2172056101 28.393 1.668 0 0 1.50
2172056102 28.492 1.525 0 0 1.50
2172056302 28.312 1.514 0 0 1.50
2172056305 28.672 1.355 0 0 1.50
2172056306 28.122 1.998 0 0 1.50
2172056403 27.772 1.982 0 0 1.50
2172056404 27.260 2.455 0 0 1.50
2172056405 26.897 2.839 0 0 1.50
2172056406 29.000 0.886 0 0 1.50
2172056501 27.207 2.512 0 0 1.50
2172056502 27.512 2.393 0 0 1.50
2172056503 27.875 2.338 0 0 1.50
2172056601 28.762 1.664 0 0 1.50
2172056601_ 28.002 2.320 0 0 1.50
2172056602 28.450 1.964 0 0 1.50
2172056602_ 28.180 2.281 0 0 1.50
2172056603 28.526 1.981 0 0 1.50
2172056603_ 28.412 1.947 0 0 1.50
2172057001 29.250 0.682 0 0 1.50
2172057002 29.186 0.908 0 0 1.50
2172057003 29.121 1.002 0 0 1.50
2172057004 29.088 1.096 0 0 1.50
2172057005 28.850 0.981 0 0 1.50
2172057101 28.729 1.386 0 0 1.50
2172057105 28.764 1.202 0 0 1.50
2172057301 28.456 1.651 0 0 1.50
2172057302 28.232 1.808 0 0 1.50
2172057305 28.249 2.080 0 0 1.50
2172057306 28.717 1.635 0 0 1.50
2172057307 27.707 2.506 0 0 1.50
2172057309 27.247 2.921 0 0 1.50
2172057402 27.236 2.791 0 0 1.50
2172057403 27.338 2.559 0 0 1.50
2172057404 27.420 2.598 0 0 1.50
2172057406 27.317 2.914 0 0 1.50
2172057501 27.588 2.394 0 0 1.50
2172057502 27.852 2.245 0 0 1.50
2172057601 28.529 2.154 0 0 1.50
2172057602 28.307 2.211 0 0 1.50
2172057603 28.362 2.366 0 0 1.50
2172058102 28.650 1.985 0 0 1.50
2172058401 27.592 2.665 0 0 1.50
2172058402 27.760 2.682 0 0 1.50
2172058403 27.857 2.537 0 0 1.50
2172058501 27.985 2.499 0 0 1.50
2172058502 28.227 2.130 0 0 1.50
2172058503 28.510 1.812 0 0 1.50
2172058602 28.681 1.763 0 0 1.50
2172058603 28.744 1.510 0 0 1.50
2172058604 28.917 1.441 0 0 1.50
2172058605 29.522 0.995 0 0 1.50
2172058606 28.898 1.371 0 0 1.50
2172058607 29.000 1.489 0 0 1.50
2172058608 28.950 1.945 0 0 1.50
2172059301 28.172 2.048 0 0 1.50
2172059302 28.452 2.084 0 0 1.50
2172059303 28.652 1.813 0 0 1.50
2172059402 28.282 2.027 0 0 1.50
2172059404 28.372 1.922 0 0 1.50
2172059405 28.767 1.574 0 0 1.50
2172059406 28.922 1.400 0 0 1.50
2172059501 29.300 1.037 0 0 1.50
2172059502 29.191 1.327 0 0 1.50
2172059503 28.925 1.644 0 0 1.50
2172059504 28.834 1.485 0 0 1.50
2172059604 28.611 1.854 0 0 1.50
2172059703 29.066 1.675 0 0 1.50
2173030105 27.605 2.074 0 0 1.50
2173030301 27.429 1.148 0 0 1.50
2173030302 27.500 1.071 0 0 1.50
2173030303 27.553 1.148 0 0 1.50
2173030304 27.600 0.940 0 0 1.50
2173030403 27.992 1.555 0 0 1.50
2173030405 27.911 1.489 0 0 1.50
2173030501 27.184 1.581 0 0 1.50
2173030502 27.267 1.807 0 0 1.50
2173030503 27.258 1.544 0 0 1.50
2173030504 27.095 1.675 0 0 1.50
2173030505 27.157 1.632 0 0 1.50
2173030506 27.188 1.727 0 0 1.50
2173030507 28.104 1.614 0 0 1.50
2173030601 27.328 1.504 0 0 1.50
2173030602 27.391 1.432 0 0 1.50
2173030603 27.470 1.500 0 0 1.50
2173030604 27.523 1.660 0 0 1.50
2173030605 27.263 1.707 0 0 1.50
2173030606 27.284 1.851 0 0 1.50
2173030607 27.596 1.602 0 0 1.50
2173030608 27.671 1.542 0 0 1.50
2173030701 27.035 1.613 0 0 1.50
2173030702 27.490 1.236 0 0 1.50
2173030703 27.225 1.531 0 0 1.50
2173030704 27.420 1.474 0 0 1.50
2173030705 27.395 1.497 0 0 1.50
2173030706 27.460 1.439 0 0 1.50
2173030801 27.685 1.444 0 0 1.50
2173030901 26.150 2.262 0 0 1.50
2173030902 26.325 2.151 0 0 1.50
2173031302 27.166 1.867 0 0 1.50
2173031304 27.487 1.409 0 0 1.50
2173031305 27.682 1.598 0 0 1.50
2173031306 27.533 1.608 0 0 1.50
2173031307 27.576 1.760 0 0 1.50
2173031308 28.353 1.619 0 0 1.50
2173031401 27.853 1.504 0 0 1.50
2173031402 27.809 1.351 0 0 1.50
2173031403 27.907 1.517 0 0 1.50
2173031404 27.631 2.051 0 0 1.50
2173031501 28.200 1.429 0 0 1.50
2173031505 28.000 1.598 0 0 1.50
2173031601 27.379 1.864 0 0 1.50
2173031701 27.699 1.469 0 0 1.50
2173031702 27.873 1.367 0 0 1.50
2173031703 27.481 1.941 0 0 1.50
2173031704 27.493 1.972 0 0 1.50
2173031705 27.950 1.350 0 0 1.50
2173031706 28.060 1.360 0 0 1.50
2173031707 27.587 1.998 0 0 1.50
2173031708 27.682 2.200 0 0 1.50
2173031801 27.555 1.678 0 0 1.50
2173031802 27.353 1.736 0 0 1.50
2173031803 27.580 1.642 0 0 1.50
2173031804 28.144 1.574 0 0 1.50
2173031805 28.223 1.334 0 0 1.50
2173031806 27.885 1.556 0 0 1.50
2173031807 28.300 1.268 0 0 1.50
2173031901 26.525 2.160 0 0 1.50
2173031902 26.725 2.104 0 0 1.50
2173031903 26.920 2.083 0 0 1.50
2173032201 29.335 1.772 0 0 1.50
2173032202 29.720 2.528 0 0 1.50
2173032205 29.981 3.207 0 0 1.50
2173032206 30.334 2.488 0 0 1.50
2173032207 31.269 2.135 0 0 1.50
2173032401 27.993 2.299 0 0 1.50
2173032801_ 27.734 2.312 0 0 1.50
2173033201 31.417 1.963 0 0 1.50
2173033202 31.550 3.297 0 0 1.50
2173033204 33.550 1.805 0 0 1.50
2173033207 34.150 1.610 0 0 1.50
2173033301 30.441 2.278 0 0 1.50
2173033302 30.574 2.134 0 0 1.50
2173033303 30.671 2.049 0 0 1.50
2173033402 30.775 1.823 0 0 1.50
2173033404 30.230 3.017 0 0 1.50
2173033501 30.115 2.268 0 0 1.50
2173033601 28.530 2.181 0 0 1.50
2173033602 28.955 1.951 0 0 1.50
2173033603 29.130 1.672 0 0 1.50
2173033604 28.720 2.146 0 0 1.50
2173033605 28.960 1.929 0 0 1.50
2173034201 34.400 2.533 0 0 1.50
2173034202 34.850 2.678 0 0 1.50
2173034203 34.655 3.041 0 0 1.50
2173034204 34.508 3.370 0 0 1.50
2173034205 34.340 3.867 0 0 1.50
2173034302 34.136 4.055 0 0 1.50
2173034303 33.940 3.927 0 0 1.50
2173034501 29.665 2.135 0 0 1.50
2173034502 29.520 1.793 0 0 1.50
2173034503 29.190 2.084 0 0 1.50
2173035301 33.699 3.872 0 0 1.50
2173035401 35.356 2.163 0 0 1.50
2173035401_ 33.945 2.412 0 0 1.50
2173035402 35.500 1.872 0 0 1.50
2173035501 32.968 2.349 0 0 1.50
2173035502 32.090 2.191 0 0 1.50
2173036501 31.113 1.997 0 0 1.50
2173036502 29.536 2.311 0 0 1.50
2173036503 28.640 2.734 0 0 1.50
2173036601_ 30.202 1.927 0 0 1.50
2173036602 30.793 1.685 0 0 1.50
2173036603 30.866 1.387 0 0 1.50
2173036604 30.950 1.390 0 0 1.50
2173036701 31.000 1.646 0 0 1.50
2173036702 31.050 1.695 0 0 1.50
2173036703 31.100 1.853 0 0 1.50
2173037801 31.857 1.561 0 0 1.50
2173037802 31.624 1.961 0 0 1.50
2173037901 28.745 2.527 0 0 1.50
2173038801 31.409 2.332 0 0 1.50
2173038901 29.000 3.705 0 0 1.50
2173038902 31.204 2.765 0 0 1.50
2173038903 31.078 2.720 0 0 1.50
2173038904 31.660 2.030 0 0 1.50
2173038905 31.380 1.890 0 0 1.50
2173039901 31.179 1.954 0 0 1.50
2173040001 25.900 2.189 0 0 1.50
2173040002 25.995 2.178 0 0 1.50
2173040101 27.000 1.661 0 0 1.50
2173040102 26.976 1.629 0 0 1.50
2173040501 25.517 3.081 0 0 1.50
2173041101 27.028 1.681 0 0 1.50
2173041102 27.050 1.596 0 0 1.50
2173041103 27.700 1.100 0 0 1.50
2173041104 27.629 1.038 0 0 1.50
2173041105 27.090 1.596 0 0 1.50
2173041201 26.950 1.656 0 0 1.50
2173041202 26.912 1.631 0 0 1.50
2173041401 26.204 3.176 0 0 1.50
2173041501 25.799 2.801 0 0 1.50
2173041502 25.787 2.763 0 0 1.50
2173041601 25.774 2.726 0 0 1.50
2173042001 27.140 1.559 0 0 1.50
2173042101 27.700 0.918 0 0 1.50
2173042302 26.431 2.246 0 0 1.50
2173042401 26.282 2.307 0 0 1.50
2173042403 26.308 2.997 0 0 1.50
2173042406 26.935 1.563 0 0 1.50
2173042601 25.763 2.587 0 0 1.50
2173042701 25.752 2.545 0 0 1.50
2173042801 25.740 2.610 0 0 1.50
2173042802 25.730 2.570 0 0 1.50
2173043003 28.055 1.289 0 0 1.50
2173043005 28.300 1.105 0 0 1.50
2173043203 26.500 2.369 0 0 1.50
2173043301 26.456 2.213 0 0 1.50
2173043302 27.075 1.447 0 0 1.50
2173043303 26.482 2.163 0 0 1.50
2173043304 27.125 1.440 0 0 1.50
2173043305 27.200 1.542 0 0 1.50
2173043401 27.013 1.601 0 0 1.50
2173043402 27.069 1.537 0 0 1.50
2173043403 27.143 1.422 0 0 1.50
2173043404 27.205 1.356 0 0 1.50
2173043405 27.326 1.258 0 0 1.50
2173043406 27.268 1.274 0 0 1.50
2173043504 27.236 1.375 0 0 1.50
2173043506 27.298 1.204 0 0 1.50
2173043601 26.495 2.344 0 0 1.50
2173043901 25.719 2.531 0 0 1.50
2173043902 25.710 2.493 0 0 1.50
2173044101 27.800 1.675 0 0 1.50
2173044102 27.751 1.465 0 0 1.50
2173044103 27.695 1.162 0 0 1.50
2173044106 27.056 2.116 0 0 1.50
2173044201 27.499 1.224 0 0 1.50
2173044202 26.695 2.416 0 0 1.50
2173044203 26.818 2.224 0 0 1.50
2173044204 27.450 1.662 0 0 1.50
2173044301 26.559 2.338 0 0 1.50
2173044302 27.184 1.515 0 0 1.50
2173044303 27.217 1.344 0 0 1.50
2173044304 27.500 1.228 0 0 1.50
2173044305 27.299 1.592 0 0 1.50
2173044306 27.513 1.074 0 0 1.50
2173044401 27.300 1.436 0 0 1.50
2173044402 27.423 1.291 0 0 1.50
2173044403 27.500 1.128 0 0 1.50
2173044404 28.000 0.905 0 0 1.50
2173044405 27.709 1.009 0 0 1.50
2173044406 27.534 1.283 0 0 1.50
2173044502 27.367 1.344 0 0 1.50
2173044504 27.424 1.238 0 0 1.50
2173044505 26.604 2.311 0 0 1.50
2173044506 27.474 1.344 0 0 1.50
2173044507 26.617 2.192 0 0 1.50
2173044601 26.563 2.539 0 0 1.50
2173044602 26.598 2.396 0 0 1.50
2173045101 27.038 2.062 0 0 1.50
2173045102 27.080 1.871 0 0 1.50
2173045103 27.089 1.863 0 0 1.50
2173045104 27.098 1.794 0 0 1.50
2173045105 27.105 1.797 0 0 1.50
2173045201 26.986 2.145 0 0 1.50
2173045202 27.004 2.161 0 0 1.50
2173045203 27.504 1.583 0 0 1.50
2173045204 27.017 2.145 0 0 1.50
2173045205 27.561 1.636 0 0 1.50
2173045210 27.531 1.198 0 0 1.50
2173045301 27.622 1.635 0 0 1.50
2173045302 27.674 1.639 0 0 1.50
2173045303 27.723 1.570 0 0 1.50
2173045304 27.758 1.581 0 0 1.50
2173045305 27.799 1.581 0 0 1.50
2173045306 27.839 1.511 0 0 1.50
2173045401 28.000 0.824 0 0 1.50
2173045402 27.600 1.273 0 0 1.50
2173045501 26.627 2.730 0 0 1.50
2173045502 26.637 2.290 0 0 1.50
2173045503 26.648 2.569 0 0 1.50
2173045504 27.273 1.842 0 0 1.50
2173045505 27.335 1.463 0 0 1.50
2173045603 27.355 1.313 0 0 1.50
2173045604 27.425 1.468 0 0 1.50
2173045901 26.005 2.421 0 0 1.50
2173046104 27.925 1.387 0 0 1.50
2173046106 28.159 1.430 0 0 1.50
2173046203 27.773 1.106 0 0 1.50
2173046301 27.612 1.297 0 0 1.50
2173046401 26.712 2.265 0 0 1.50
2173046402 27.885 1.461 0 0 1.50
2173046403 27.916 1.493 0 0 1.50
2173046404 27.950 1.458 0 0 1.50
2173046405 28.000 1.412 0 0 1.50
2173046406 26.776 2.188 0 0 1.50
2173046409 26.808 2.569 0 0 1.50
2173046410 27.700 1.385 0 0 1.50
2173046412 27.466 1.923 0 0 1.50
2173046413 26.875 2.345 0 0 1.50
2173046414 27.212 1.887 0 0 1.50
2173046501 27.409 1.414 0 0 1.50
2173046601 27.500 1.389 0 0 1.50
2173046602 27.491 1.252 0 0 1.50
2173046603 27.600 1.143 0 0 1.50
2173046707 27.376 1.287 0 0 1.50
2173046709 27.500 1.108 0 0 1.50
2173046901 26.067 3.402 0 0 1.50
2173046902 26.082 4.130 0 0 1.50
2173047001 28.486 1.526 0 0 1.50
2173047002 28.300 1.544 0 0 1.50
2173047003 28.838 1.638 0 0 1.50
2173047004 29.148 1.726 0 0 1.50
2173047005 29.352 1.747 0 0 1.50
2173047101 28.279 1.206 0 0 1.50
2173047102 28.374 1.185 0 0 1.50
2173047103 27.945 1.349 0 0 1.50
2173047104 28.498 1.463 0 0 1.50
2173047105 28.130 1.508 0 0 1.50
2173047301 27.817 1.355 0 0 1.50
2173047302 27.900 1.221 0 0 1.50
2173047402 27.258 1.795 0 0 1.50
2173047501 27.526 1.927 0 0 1.50
2173047502 27.581 1.843 0 0 1.50
2173047503 27.321 1.805 0 0 1.50
2173047504 27.640 1.766 0 0 1.50
2173047505 27.380 1.744 0 0 1.50
2173047506 27.419 1.765 0 0 1.50
2173047601 27.492 1.483 0 0 1.50
2173047602 27.700 1.616 0 0 1.50
2173047603 27.517 1.850 0 0 1.50
2173047604 27.474 1.761 0 0 1.50
2173047701 27.446 1.327 0 0 1.50
2173047702 27.512 1.283 0 0 1.50
2173047703 27.468 1.327 0 0 1.50
2173047704 27.592 1.170 0 0 1.50
2173047801 27.500 1.420 0 0 1.50
2173047802 27.351 1.582 0 0 1.50
2173047803 27.167 1.817 0 0 1.50
2173047804 27.693 1.171 0 0 1.50
2173047805 27.815 1.087 0 0 1.50
2173047902 26.996 2.271 0 0 1.50
2173047903 26.824 2.296 0 0 1.50
2173047904 26.410 2.725 0 0 1.50
2173048001 28.822 1.776 0 0 1.50
2173048002 28.759 1.832 0 0 1.50
2173048003 29.662 1.913 0 0 1.50
2173048004 28.683 1.940 0 0 1.50
2173048005 29.712 1.635 0 0 1.50
2173048006 29.432 1.600 0 0 1.50
2173048007 29.207 1.365 0 0 1.50
2173048008 29.062 2.144 0 0 1.50
2173048101 28.595 1.546 0 0 1.50
2173048102 28.339 1.421 0 0 1.50
2173048103 28.597 1.497 0 0 1.50
2173048104 28.794 1.648 0 0 1.50
2173048106 29.052 1.418 0 0 1.50
2173048201 28.000 1.582 0 0 1.50
2173048204 28.412 1.573 0 0 1.50
2173048303 28.161 1.732 0 0 1.50
2173048305 28.355 1.723 0 0 1.50
2173048403 28.582 1.642 0 0 1.50
2173048503 27.878 1.805 0 0 1.50
2173048601 27.538 1.873 0 0 1.50
2173048602 27.549 1.602 0 0 1.50
2173048603 27.746 1.515 0 0 1.50
2173048604 27.742 1.527 0 0 1.50
2173048701 27.566 1.858 0 0 1.50
2173048702 27.795 1.431 0 0 1.50
2173048703 27.593 1.915 0 0 1.50
2173048704 27.839 1.426 0 0 1.50
2173048705 27.621 1.841 0 0 1.50
2173048801 27.913 1.201 0 0 1.50
2173048802 28.000 1.077 0 0 1.50
2173048803 26.566 2.921 0 0 1.50
2173048901 26.460 2.667 0 0 1.50
2173048902 26.470 2.687 0 0 1.50
2173048903 26.487 2.555 0 0 1.50
2173048904 27.117 2.033 0 0 1.50
2173049001 30.898 1.918 0 0 1.50
2173049002 30.687 1.831 0 0 1.50
2173049201 28.559 2.051 0 0 1.50
2173049202 28.682 1.832 0 0 1.50
2173049203 28.853 1.937 0 0 1.50
2173049204 29.147 1.917 0 0 1.50
2173049205 29.034 2.193 0 0 1.50
2173049206 29.300 2.143 0 0 1.50
2173049207 29.510 1.667 0 0 1.50
2173049301 28.765 1.685 0 0 1.50
2173049302 28.936 1.499 0 0 1.50
2173049303 29.181 1.708 0 0 1.50
2173049304 29.359 1.683 0 0 1.50
2173049401 28.768 1.806 0 0 1.50
2173049402 28.977 2.181 0 0 1.50
2173049403 29.195 1.919 0 0 1.50
2173049404 29.293 1.950 0 0 1.50
2173049405 29.448 1.799 0 0 1.50
2173049501 28.002 1.981 0 0 1.50
2173049601 28.158 1.991 0 0 1.50
2173049602 28.268 1.811 0 0 1.50
2173049603 28.367 1.807 0 0 1.50
2173049701 27.893 1.434 0 0 1.50
2173049702 27.943 1.366 0 0 1.50
2173049801 27.640 2.049 0 0 1.50
2173049802 26.637 3.443 0 0 1.50
2173049803 27.660 2.044 0 0 1.50
2173049804 26.710 3.023 0 0 1.50
2173049805 28.000 1.373 0 0 1.50
2173049806 27.374 2.213 0 0 1.50
2173049807 27.586 1.868 0 0 1.50
2173049808 27.040 2.372 0 0 1.50
2173049901 27.311 2.251 0 0 1.50
2173049902 27.662 1.884 0 0 1.50
2173049903 28.300 1.314 0 0 1.50
2173049904 27.713 1.760 0 0 1.50
2173049905 27.877 1.738 0 0 1.50
2173050301 28.962 1.038 0 0 1.50
2173050301_ 28.832 2.479 0 0 1.50
2173050302 28.827 1.173 0 0 1.50
2173050401 28.691 1.309 0 0 1.50
2173050601 28.480 2.049 0 0 1.50
2173051401 28.531 1.269 0 0 1.50
2173051402 28.180 1.620 0 0 1.50
2173051501 28.060 1.140 0 0 1.50
2173051502 27.955 1.245 0 0 1.50
2173052501 27.820 1.180 0 0 1.50
2173052502 27.723 1.077 0 0 1.50
2173053001 25.704 2.546 0 0 1.50
2173053002 25.695 2.565 0 0 1.50
2173053101 25.684 2.616 0 0 1.50
2173053201 26.822 0.978 0 0 1.50
2173053202 26.750 1.050 0 0 1.50
2173053203 26.720 1.080 0 0 1.50
2173053301 26.652 1.148 0 0 1.50
2173053401 26.602 1.198 0 0 1.50
2173053402 26.387 1.413 0 0 1.50
2173053403 26.291 1.509 0 0 1.50
2173054101 25.675 2.595 0 0 1.50
2173054201 25.664 2.586 0 0 1.50
2173054202 25.653 2.597 0 0 1.50
2173054301 25.640 2.590 0 0 1.50
2173054401 25.631 2.569 0 0 1.50
2173054505 26.975 0.825 0 0 1.50
2173054506 26.017 1.583 0 0 1.50
2173054507 26.781 1.572 0 0 1.50
2173054508 27.000 0.600 0 0 1.50
2173054509 25.982 1.618 0 0 1.50
2173054510 26.923 0.677 0 0 1.50
2173054511 26.789 0.811 0 0 1.50
2173054512 26.141 1.459 0 0 1.50
2173054513 27.117 0.683 0 0 1.50
2173054601 27.052 0.748 0 0 1.50
2173054602 26.904 0.896 0 0 1.50
2173054603 26.863 0.937 0 0 1.50
2173054604 26.323 1.477 0 0 1.50
2173054605 25.977 1.823 0 0 1.50
2173054606 26.788 1.012 0 0 1.50
2173054607 26.777 1.023 0 0 1.50
2173054608 26.420 2.160 0 0 1.50
2173054609 25.797 2.916 0 0 1.50
2173054610 26.336 2.244 0 0 1.50
2173054611 26.787 1.305 0 0 1.50
2173055401 25.620 2.585 0 0 1.50
2173055503 26.628 1.590 0 0 1.50
2173055505 25.611 2.599 0 0 1.50
2173055506 25.603 3.237 0 0 1.50
2173055507 25.592 2.908 0 0 1.50
2173055601 25.592 2.808 0 0 1.50
2173055602 25.591 2.509 0 0 1.50
2173055603 25.588 2.712 0 0 1.50
2173055604 25.584 2.616 0 0 1.50
2173055605 25.827 4.469 0 0 1.50
2173055606 25.845 3.264 0 0 1.50
2173056601 25.864 3.116 0 0 1.50
2173056602 25.882 3.028 0 0 1.50
2173056701 25.898 3.043 0 0 1.50
2173057001 26.100 2.880 0 0 1.50
2173057005 26.320 2.795 0 0 1.50
2173058001 27.231 1.781 0 0 1.50
2173058003 27.500 1.537 0 0 1.50
2173058005 27.514 1.674 0 0 1.50
2173058007 27.546 1.696 0 0 1.50
2173058101 27.758 1.254 0 0 1.50
2173058102 27.904 1.402 0 0 1.50
2173058103 28.000 1.351 0 0 1.50
2173058106 27.800 1.659 0 0 1.50
2173058203 27.706 1.414 0 0 1.50
2173058205 27.747 1.518 0 0 1.50
2173058206 27.855 1.349 0 0 1.50
2173058301 27.894 0.866 0 0 1.50
2173058303 27.847 0.965 0 0 1.50
2173058305 27.540 1.560 0 0 1.50
2173058306 27.600 1.122 0 0 1.50
2173058308 27.636 1.167 0 0 1.50
2173058401 28.000 0.722 0 0 1.50
2173058402 27.500 1.339 0 0 1.50
2173059001 28.025 1.364 0 0 1.50
2173059002 28.213 1.478 0 0 1.50
2173059003 28.200 1.307 0 0 1.50
2173059004 28.300 1.416 0 0 1.50
2173059005 28.279 1.331 0 0 1.50
2173059006 28.300 1.485 0 0 1.50
2173059007 28.254 1.553 0 0 1.50
2173059103 28.172 1.615 0 0 1.50
2173059104 28.107 1.816 0 0 1.50
2173059105 28.125 2.005 0 0 1.50
2173059201 27.923 1.433 0 0 1.50
2173059202 28.000 1.714 0 0 1.50
2173059204 28.305 1.422 0 0 1.50
2173059301 27.688 1.204 0 0 1.50
2173059401 27.465 1.185 0 0 1.50
2173059402 27.423 1.220 0 0 1.50
2173059403 27.726 0.984 0 0 1.50
2173059404 27.741 1.056 0 0 1.50
2173059405 27.799 1.139 0 0 1.50
2173059406 27.846 0.998 0 0 1.50
2173059407 27.896 0.881 0 0 1.50
2173059408 27.921 1.128 0 0 1.50
2173059501 27.236 1.464 0 0 1.50
2173059502 27.183 1.471 0 0 1.50
2173059503 27.139 1.424 0 0 1.50
2173059504 27.103 1.289 0 0 1.50
2173059505 27.065 1.365 0 0 1.50
2173059601 26.885 1.937 0 0 1.50
2174031101 27.500 2.147 0 0 1.50
2174031203 28.600 1.057 0 0 1.50
2174031306 27.604 2.002 0 0 1.50
2174031405 27.044 2.583 0 0 1.50
2174031701 28.130 2.268 0 0 1.50
2174031704 27.990 2.244 0 0 1.50
2174032201 25.470 2.740 0 0 1.50
2174032202 25.460 2.740 0 0 1.50
2174032203 25.495 2.705 0 0 1.50
2174032303 25.490 2.725 0 0 1.50
2174032304 25.773 2.593 0 0 1.50
2174032305 25.500 2.738 0 0 1.50
2174032306 25.737 2.428 0 0 1.50
2174032307 25.590 2.455 0 0 1.50
2174032601 27.872 2.333 0 0 1.50
2174033201 25.440 2.960 0 0 1.50
2174033202 25.474 2.654 0 0 1.50
2174033203 25.430 3.070 0 0 1.50
2174033204 25.453 2.978 0 0 1.50
2174033205 25.499 2.756 0 0 1.50
2174033206 25.420 3.110 0 0 1.50
2174033207 25.442 2.933 0 0 1.50
2174033301 25.585 2.445 0 0 1.50
2174033302 25.565 2.451 0 0 1.50
2174033304 25.535 2.578 0 0 1.50
2174033306 25.515 2.724 0 0 1.50
2174033308 25.550 2.704 0 0 1.50
2174033309 25.490 2.934 0 0 1.50
2174033310 25.510 3.022 0 0 1.50
2174040001 30.462 1.990 0 0 1.50
2174040102 29.225 2.223 0 0 1.50
2174040103 29.843 2.407 0 0 1.50
2174040104 29.589 2.254 0 0 1.50
2174040105 29.416 2.438 0 0 1.50
2174040106 30.057 2.472 0 0 1.50
2174040107 30.232 2.294 0 0 1.50
2174040201 29.709 2.250 0 0 1.50
2174040202 29.819 2.106 0 0 1.50
2174040203 29.993 2.029 0 0 1.50
2174040204 30.210 1.897 0 0 1.50
2174040301 29.530 1.955 0 0 1.50
2174040302 29.931 1.812 0 0 1.50
2174040303 30.171 2.048 0 0 1.50
2174040401 29.661 1.557 0 0 1.50
2174040402 29.929 1.682 0 0 1.50
2174040403 29.842 1.636 0 0 1.50
2174040404 29.940 1.666 0 0 1.50
2174040405 30.295 1.810 0 0 1.50
2174040502 30.000 1.306 0 0 1.50
2174040601 29.935 1.164 0 0 1.50
2174040602 29.872 1.186 0 0 1.50
2174040603 29.796 1.033 0 0 1.50
2174040701 28.475 1.818 0 0 1.50
2174040702 28.600 1.767 0 0 1.50
2174040703 29.605 0.791 0 0 1.50
2174040704 29.729 0.939 0 0 1.50
2174040705 29.540 1.054 0 0 1.50
2174040706 29.669 0.854 0 0 1.50
2174040901 28.107 1.832 0 0 1.50
2174040902 28.398 1.795 0 0 1.50
2174040904 28.405 1.779 0 0 1.50
2174040905 28.669 1.329 0 0 1.50
2174040906 28.832 1.770 0 0 1.50
2174040907 28.808 1.892 0 0 1.50
2174040908 29.027 1.756 0 0 1.50
2174041101 30.442 2.322 0 0 1.50
2174041102 30.664 1.969 0 0 1.50
2174041103 30.829 2.047 0 0 1.50
2174041104 31.010 2.000 0 0 1.50
2174041105 31.187 2.142 0 0 1.50
2174041201 30.762 1.873 0 0 1.50
2174041202 30.869 1.935 0 0 1.50
2174041203 30.942 1.968 0 0 1.50
2174041204 31.135 1.729 0 0 1.50
2174041205 31.100 1.815 0 0 1.50
2174041206 31.308 1.673 0 0 1.50
2174041207 31.300 1.672 0 0 1.50
2174041208 31.463 1.598 0 0 1.50
2174041301 30.383 2.310 0 0 1.50
2174041302 30.594 2.243 0 0 1.50
2174041303 31.162 1.646 0 0 1.50
2174041304 30.726 2.649 0 0 1.50
2174041305 31.467 1.600 0 0 1.50
2174041401 30.553 1.808 0 0 1.50
2174041402 30.300 1.587 0 0 1.50
2174041403 30.779 1.733 0 0 1.50
2174041404 30.557 1.675 0 0 1.50
2174041405 30.762 1.695 0 0 1.50
2174041501 30.167 1.763 0 0 1.50
2174041502 30.048 1.967 0 0 1.50
2174041503 30.162 1.722 0 0 1.50
2174041504 30.237 1.641 0 0 1.50
2174041601 30.317 1.417 0 0 1.50
2174041602 30.448 1.311 0 0 1.50
2174041603 30.600 1.250 0 0 1.50
2174041704 29.625 1.690 0 0 1.50
2174041705 30.033 1.483 0 0 1.50
2174041801 29.143 1.683 0 0 1.50
2174041803 29.317 1.629 0 0 1.50
2174041806 30.264 1.456 0 0 1.50
2174041807 30.500 1.240 0 0 1.50
2174041901 29.258 1.911 0 0 1.50
2174042201 31.566 1.693 0 0 1.50
2174042202 31.713 2.056 0 0 1.50
2174042203 31.827 2.172 0 0 1.50
2174042204 32.682 2.109 0 0 1.50
2174042301 31.866 1.587 0 0 1.50
2174042302 32.215 1.681 0 0 1.50
2174042303 32.477 1.766 0 0 1.50
2174042401 30.891 1.704 0 0 1.50
2174042402 31.150 1.942 0 0 1.50
2174042403 31.500 1.571 0 0 1.50
2174042404 31.434 1.622 0 0 1.50
2174042501 31.352 1.734 0 0 1.50
2174042502 31.175 1.901 0 0 1.50
2174042604 31.080 1.754 0 0 1.50
2174042605 30.959 1.777 0 0 1.50
2174042704 30.914 1.766 0 0 1.50
2174042901 29.933 1.744 0 0 1.50
2174042902 29.975 1.848 0 0 1.50
2174042903 30.350 1.373 0 0 1.50
2174042904 30.590 1.207 0 0 1.50
2174042905 31.000 0.998 0 0 1.50
2174042906 30.284 1.756 0 0 1.50
2174042907 30.329 1.807 0 0 1.50
2174043203 30.642 1.913 0 0 1.50
2174043301 33.075 2.313 0 0 1.50
2174043302 33.218 2.532 0 0 1.50
2174043303 33.353 2.397 0 0 1.50
2174043401 33.453 2.177 0 0 1.50
2174043402 33.584 1.916 0 0 1.50
2174043403 33.675 1.625 0 0 1.50
2174043501 33.747 1.503 0 0 1.50
2174043502 33.835 1.235 0 0 1.50
2174043701 30.879 2.040 0 0 1.50
2174043801 30.841 1.784 0 0 1.50
2174043802 30.810 1.611 0 0 1.50
2174043803 30.785 1.632 0 0 1.50
2174043901 30.403 1.960 0 0 1.50
2174043902 30.757 1.695 0 0 1.50
2174043903 30.513 2.328 0 0 1.50
2174043904 30.516 2.335 0 0 1.50
2174043905 30.622 1.956 0 0 1.50
2174050001 28.231 1.803 0 0 1.50
2174050002 28.213 1.866 0 0 1.50
2174050003 28.837 2.291 0 0 1.50
2174050004 29.121 1.805 0 0 1.50
2174050101 28.159 2.035 0 0 1.50
2174050102 28.185 2.115 0 0 1.50
2174050103 28.237 2.286 0 0 1.50
2174050104 28.700 1.729 0 0 1.50
2174050105 28.638 1.948 0 0 1.50
2174050106 28.844 1.987 0 0 1.50
2174050202 28.454 1.642 0 0 1.50
2174050203 28.543 1.551 0 0 1.50
2174050204 28.677 1.348 0 0 1.50
2174050205 28.842 1.598 0 0 1.50
2174050304 28.439 1.297 0 0 1.50
2174050305 28.112 1.848 0 0 1.50
2174050401 27.978 0.942 0 0 1.50
2174050405 27.635 1.928 0 0 1.50
2174050501 28.000 1.150 0 0 1.50
2174050502 26.889 1.808 0 0 1.50
2174050503 26.893 1.926 0 0 1.50
2174050504 28.131 1.013 0 0 1.50
2174050505 26.897 1.935 0 0 1.50
2174050506 28.300 0.759 0 0 1.50
2174050507 26.902 2.038 0 0 1.50
2174050508 27.172 1.983 0 0 1.50
2174050509 27.002 1.885 0 0 1.50
2174050510 27.180 1.805 0 0 1.50
2174050511 27.500 1.623 0 0 1.50
2174050601 26.832 1.905 0 0 1.50
2174050602 26.731 2.043 0 0 1.50
2174050603 26.486 2.038 0 0 1.50
2174050604 26.600 1.635 0 0 1.50
2174050605 26.742 2.080 0 0 1.50
2174050606 26.491 2.233 0 0 1.50
2174050607 26.887 2.172 0 0 1.50
2174050608 26.802 1.742 0 0 1.50
2174050702 26.482 2.652 0 0 1.50
2174051001 29.416 1.850 0 0 1.50
2174051002 29.534 2.061 0 0 1.50
2174051003 29.695 1.891 0 0 1.50
2174051004 29.791 2.212 0 0 1.50
2174051005 30.037 2.271 0 0 1.50
2174051101 29.195 1.883 0 0 1.50
2174051102 30.030 1.933 0 0 1.50
2174051201 29.427 1.548 0 0 1.50
2174051202 29.787 1.492 0 0 1.50
2174051203 30.272 1.709 0 0 1.50
2174051301 28.700 1.630 0 0 1.50
2174051302 28.530 1.762 0 0 1.50
2174051303 28.952 1.737 0 0 1.50
2174051304 29.441 1.794 0 0 1.50
2174051402 27.726 2.219 0 0 1.50
2174051403 27.867 1.796 0 0 1.50
2174051601 26.982 1.975 0 0 1.50
2174051602 26.765 1.998 0 0 1.50
2174051603 26.871 1.956 0 0 1.50
2174051604 26.960 2.156 0 0 1.50
2174051701 26.945 1.674 0 0 1.50
2174052001 30.752 1.146 0 0 1.50
2174052002 30.861 1.054 0 0 1.50
2174052003 30.995 1.225 0 0 1.50
2174052004 31.141 0.980 0 0 1.50
2174052101 30.257 2.545 0 0 1.50
2174052101_ 30.680 1.310 0 0 1.50
2174052102 31.157 1.212 0 0 1.50
2174052103 31.300 1.035 0 0 1.50
2174052201 30.036 1.758 0 0 1.50
2174052202 30.554 1.963 0 0 1.50
2174052203 30.400 1.812 0 0 1.50
2174052204 30.035 2.150 0 0 1.50
2174052205 30.244 2.208 0 0 1.50
2174052301 28.801 1.778 0 0 1.50
2174052302 29.289 1.974 0 0 1.50
2174052303 29.597 2.053 0 0 1.50
2174052402 27.973 1.818 0 0 1.50
2174052403 28.150 1.713 0 0 1.50
2174052404 28.472 1.660 0 0 1.50
2174052405 28.063 1.734 0 0 1.50
2174052406 28.286 1.768 0 0 1.50
2174052407 28.504 1.691 0 0 1.50
2174052408 28.266 1.654 0 0 1.50
2174052501_ 27.800 1.100 0 0 1.50
2174052502_ 27.711 1.249 0 0 1.50
2174052503 27.715 1.643 0 0 1.50
2174052504 27.759 1.981 0 0 1.50
2174052505 27.817 2.045 0 0 1.50
2174052601 27.861 1.578 0 0 1.50
2174052601_ 27.600 1.160 0 0 1.50
2174052602 28.000 1.396 0 0 1.50
2174053001 31.226 1.023 0 0 1.50
2174053001_ 30.780 1.300 0 0 1.50
2174053002 31.300 1.172 0 0 1.50
2174053002_ 29.795 2.135 0 0 1.50
2174053101 29.888 2.072 0 0 1.50
2174053102 29.838 2.092 0 0 1.50
2174053201 29.692 2.068 0 0 1.50
2174053202 30.300 1.540 0 0 1.50
2174053203 30.100 1.720 0 0 1.50
2174053204 29.442 2.328 0 0 1.50
2174053205 30.050 1.800 0 0 1.50
2174053206 29.051 2.279 0 0 1.50
2174053207 29.610 1.900 0 0 1.50
2174053301 28.697 1.881 0 0 1.50
2174053301_ 28.773 2.217 0 0 1.50
2174053302 28.888 1.959 0 0 1.50
2174053303 29.194 1.497 0 0 1.50
2174053304 29.170 1.976 0 0 1.50
2174053401 28.431 1.575 0 0 1.50
2174053401_ 28.490 1.550 0 0 1.50
2174053402 29.430 1.135 0 0 1.50
2174053402_ 28.145 1.055 0 0 1.50
2174053403 29.600 0.828 0 0 1.50
2174053403_ 27.911 1.289 0 0 1.50
2174053501 27.862 1.927 0 0 1.50
2174053501_ 27.618 1.242 0 0 1.50
2174053502 27.533 1.107 0 0 1.50
2174053503 27.660 1.590 0 0 1.50
2174053504 27.578 1.452 0 0 1.50
2174053505 27.466 1.094 0 0 1.50
2174053506 27.450 1.030 0 0 1.50
2174053507 27.439 1.041 0 0 1.50
2174053601 27.562 1.218 0 0 1.50
2174053602 27.700 0.850 0 0 1.50
2174053603 27.529 0.941 0 0 1.50
2174053604 27.632 0.848 0 0 1.50
2174053605 27.502 0.978 0 0 1.50
2174053606 27.488 0.992 0 0 1.50

[OUTFALLS]
;;Name Elevation Type
2171039205 23.452 FREE NO
2171039208 23.348 FREE NO
2171039210 24.607 FREE NO
2171039211 25.542 FREE NO
2172030502 27.150 FREE NO
2172031804 26.900 FREE NO
2172034807 24.347 FREE NO
2172035801 24.452 FREE NO
2172037003 26.000 FREE NO
2172037104 26.282 FREE NO
2172038705 26.749 FREE NO
2172039702 26.215 FREE NO
2172040012 28.365 FREE NO
2172040705 27.054 FREE NO
2172040801 27.352 FREE NO
2172040901 27.463 FREE NO
2172041706 27.585 FREE NO
2172041906 26.765 FREE NO
2172042603 27.351 FREE NO
2172042903 27.822 FREE NO
2172043601 27.855 FREE NO
2172044406 28.146 FREE NO
2172052104 26.500 FREE NO
2172054508 26.368 FREE NO
2172054511 26.010 FREE NO
2172055003 28.008 FREE NO
2172055602 27.512 FREE NO
2172056304 27.942 FREE NO
2172056701 28.303 FREE NO
2172057103 28.524 FREE NO
2172057401 27.112 FREE NO
2172057601_ 28.289 FREE NO
2172059602 28.915 FREE NO
2173030102 27.195 FREE NO
2173032501 27.965 FREE NO
2173036601 30.773 FREE NO
2173037501 28.556 FREE NO
2173041203 26.887 FREE NO
2173042201 27.552 FREE NO
2173042202 27.500 FREE NO
2173042402 26.406 FREE NO
2173042404 26.866 FREE NO
2173042407 27.000 FREE NO
2173043001 27.849 FREE NO
2173043202 27.434 FREE NO
2173043502 27.132 FREE NO
2173043505 27.273 FREE NO
2173045601 27.292 FREE NO
2173046003 28.000 FREE NO
2173046102 27.575 FREE NO
2173046202 27.732 FREE NO
2173046704 27.300 FREE NO
2173047202 27.629 FREE NO
2173047204 27.800 FREE NO
2173048301 27.986 FREE NO
2173049504 29.540 FREE NO
2173050602 28.414 FREE NO
2173052603 27.508 FREE NO
2173054701 25.784 FREE NO
2173054702 26.225 FREE NO
2173055701 25.579 FREE NO
2173057003 26.177 FREE NO
2173057105 27.592 FREE NO
2173058004 27.475 FREE NO
2173058104 27.853 FREE NO
2173058202 27.698 FREE NO
2173058302 27.816 FREE NO
2173058304 27.500 FREE NO
2173059101 28.063 FREE NO
2174030104 27.200 FREE NO
2174031409 26.935 FREE NO
2174032603 27.800 FREE NO
2174034201 25.475 FREE NO
2174034202 25.400 FREE NO
2174034203 25.416 FREE NO
2174034301 25.480 FREE NO
2174040003 30.235 FREE NO
2174040903 28.553 FREE NO
2174043204 30.300 FREE NO
2174050201 28.492 FREE NO
2174050302 28.279 FREE NO
2174050402 27.690 FREE NO
2174050403 27.595 FREE NO
2174050701 26.479 FREE NO
2174052502 27.692 FREE NO
2174052703 27.741 FREE NO
2174053208 29.290 FREE NO
2174054001 29.727 FREE NO
2174054301 28.449 FREE NO
2171049803_OUT 27.178 FREE NO
2172038505_OUT 26.100 FREE NO
2172038509_OUT 26.241 FREE NO
2172039202_OUT 27.000 FREE NO
2172039304_OUT 27.268 FREE NO
2172043605_OUT 27.670 FREE NO
2172043606_OUT 27.650 FREE NO
2172043905_OUT 26.247 FREE NO
2172044706_OUT 26.747 FREE NO
2172045701_OUT 27.537 FREE NO
2172052105_OUT 26.000 FREE NO
2172056405_OUT 26.897 FREE NO
2172057101_OUT 28.729 FREE NO
2172057309_OUT 27.247 FREE NO
2172059301_OUT 28.172 FREE NO
2173031302_OUT 27.166 FREE NO
2173031402_OUT 27.809 FREE NO
2173033601_OUT 28.530 FREE NO
2173035301_OUT 33.699 FREE NO
2173047701_OUT 27.446 FREE NO
2173048204_OUT 28.412 FREE NO
2173059104_OUT 28.107 FREE NO
2174041502_OUT 30.048 FREE NO
2174041801_OUT 29.143 FREE NO
2174042901_OUT 29.933 FREE NO
2174052402_OUT 27.973 FREE NO
2174053507_OUT 27.439 FREE NO

[CONDUITS]
;;Name From To Length Roughness InOffset OutOffset InitFlow MaxFlow
17233 2173030105 2173030102 30.60 0.0130 0.000 0.000 0 0
17239 2173030301 2172039206 47.70 0.0130 0.000 0.000 0 0
17240 2173030302 2173030301 32.80 0.0130 0.000 0.000 0 0
17241 2173030303 2173030302 24.40 0.0130 0.000 0.000 0 0
17242 2173030304 2173030303 21.50 0.0130 0.000 0.000 0 0
17248 2173030403 2173030405 24.70 0.0130 0.000 0.000 0 0
17250 2173030405 2173031401 17.50 0.0130 0.000 0.000 0 0
17252 2173030501 2172039508 15.80 0.0130 0.000 0.000 0 0
17253 2173030502 2172039508 20.20 0.0130 0.000 0.000 0 0
17254 2173030503 2173030501 24.40 0.0130 0.000 0.000 0 0
17255 2173030504 2172039407 48.30 0.0130 0.000 0.000 0 0
17256 2173030505 2173030504 33.80 0.0130 0.000 0.000 0 0
17257 2173030505 2173030502 21.70 0.0130 0.253 0.000 0 0
17259 2173030506 2173030505 16.80 0.0130 0.000 0.000 0 0
17260 2173030507 2173030403 34.00 0.0130 0.000 0.000 0 0
17263 2173030601 2173030503 23.30 0.0130 0.000 0.000 0 0
17264 2173030602 2173030601 20.60 0.0130 0.000 0.000 0 0
17265 2173030603 2173030602 26.10 0.0130 0.000 0.000 0 0
17266 2173030604 2173030603 17.50 0.0130 0.000 0.000 0 0
17267 2173030605 2173030506 41.50 0.0130 0.000 0.000 0 0
17269 2173030606 2173030605 10.30 0.0130 0.000 0.007 0 0
17270 2173030607 2173030604 24.20 0.0130 0.000 0.000 0 0
17271 2173030608 2173030607 24.70 0.0130 0.000 0.000 0 0
17272 2173030701 2172039706 22.50 0.0130 0.000 0.000 0 0
17273 2173030702 2173030704 30.00 0.0130 0.000 0.000 0 0
17274 2173030703 2173030701 28.50 0.0130 0.000 0.000 0 0
17275 2173030704 2173030703 13.00 0.0130 0.000 0.000 0 0
17276 2173030705 2173030703 15.30 0.0130 0.000 0.000 0 0
17277 2173030706 2173030705 43.60 0.0130 0.000 0.000 0 0
17278 2173030801 2173030706 17.50 0.0130 0.000 0.000 0 0
17279 2173030901 2173040002 43.20 0.0130 0.000 0.050 0 0
17280 2173030902 2173030901 21.30 0.0130 0.000 0.080 0 0
17290 2173031304 2173031302 13.90 0.0130 0.000 0.300 0 0
17291 2173031305 2173031302 23.00 0.0130 0.000 0.000 0 0
17292 2173031306 2173031304 31.30 0.0130 0.000 0.000 0 0
17293 2173031307 2173031306 29.40 0.0130 0.000 0.000 0 0
17294 2173031308 2173031305 30.00 0.0130 0.000 0.000 0 0
17295 2173031401 2173031402 13.60 0.0130 0.000 0.000 0 0
17297 2173031403 2173031402 33.80 0.0130 0.000 0.000 0 0
17298 2173031404 2173031307 37.70 0.0130 0.000 0.000 0 0
17299 2173031404 2173032401 71.60 0.0130 0.469 0.000 0 0
17300 2173031501 2173030507 29.10 0.0130 0.000 0.000 0 0
17304 2173031505 2173031403 31.80 0.0130 0.000 0.000 0 0
17307 2173031601 2173030606 51.60 0.0130 0.000 0.000 0 0
17308 2173031701 2173030608 9.40 0.0130 0.000 0.000 0 0
17309 2173031702 2173031701 38.60 0.0130 0.000 0.029 0 0
17310 2173031703 2173031601 55.20 0.0130 0.000 0.000 0 0
17311 2173031704 2173031703 6.70 0.0130 0.000 0.000 0 0
17312 2173031705 2173031702 25.20 0.0130 0.000 0.000 0 0
17313 2173031706 2173031705 36.40 0.0130 0.000 0.000 0 0
17314 2173031707 2173031704 50.80 0.0130 0.000 0.000 0 0
17315 2173031708 2173031707 51.60 0.0130 0.000 0.000 0 0
17316 2173031801 2173031802 28.20 0.0130 0.000 0.000 0 0
17317 2173031802 2173031903 18.40 0.0130 0.000 0.300 0 0
17318 2173031803 2173031903 28.30 0.0130 0.000 0.300 0 0
17319 2173031804 2173031706 27.80 0.0130 0.000 0.000 0 0
17320 2173031805 2173031804 26.10 0.0130 0.000 0.000 0 0
17321 2173031806 2173031803 28.30 0.0130 0.000 0.000 0 0
17322 2173031807 2173031805 25.60 0.0130 0.000 0.000 0 0
17323 2173031901 2173030902 27.60 0.0130 0.000 0.000 0 0
17324 2173031902 2173031901 31.20 0.0130 0.000 0.000 0 0
17325 2173031903 2173031902 24.00 0.0130 0.000 0.000 0 0
17334 2173032201 2173031308 43.80 0.0130 0.000 0.000 0 0
17335 2173032202 2173032201 55.50 0.0130 0.000 0.000 0 0
17338 2173032205 2173032202 31.60 0.0130 0.000 0.000 0 0
17339 2173032206 2173032205 16.60 0.0130 0.000 0.300 0 0
17340 2173032207 2173032205 15.20 0.0130 0.000 1.077 0 0
17341 2173032401 2173032501 19.00 0.0130 0.000 0.000 0 0
17352 2173032801_ 2173031708 41.40 0.0130 0.000 0.000 0 0
17372 2173033201 2173032207 28.50 0.0130 0.000 0.000 0 0
17373 2173033202 2173033201 25.10 0.0130 0.000 0.000 0 0
17375 2173033204 2173033202 19.20 0.0130 0.000 1.450 0 0
17378 2173033207 2173033204 20.60 0.0130 0.000 0.000 0 0
17379 2173033301 2173032206 33.20 0.0130 0.000 0.000 0 0
17380 2173033302 2173033301 41.40 0.0130 0.000 0.000 0 0
17381 2173033303 2173033302 30.50 0.0130 0.000 0.000 0 0
17384 2173033402 2173033303 32.30 0.0130 0.000 0.000 0 0
17386 2173033404 2173033501 44.80 0.0130 0.000 0.000 0 0
17388 2173033501 2173034501 38.60 0.0130 0.000 0.000 0 0
17390 2173033602 2173033601 23.30 0.0130 0.000 0.170 0 0
17391 2173033603 2173033602 21.50 0.0130 0.000 0.000 0 0
17392 2173033604 2173033601 33.80 0.0130 0.000 0.000 0 0
17393 2173033605 2173033604 43.10 0.0130 0.000 0.000 0 0
17409 2173034201 2173033207 38.50 0.0130 0.000 0.000 0 0
17410 2173034202 2173034203 28.60 0.0130 0.000 0.000 0 0
17411 2173034203 2173034204 21.50 0.0130 0.000 0.000 0 0
17412 2173034204 2173034205 24.70 0.0130 0.000 0.000 0 0
17413 2173034205 2173034302 30.00 0.0130 0.000 0.000 0 0
17415 2173034302 2173034303 28.80 0.0130 0.000 0.000 0 0
17416 2173034303 2173035301 35.40 0.0130 0.000 0.000 0 0
17419 2173034501 2173034502 35.10 0.0130 0.000 0.000 0 0
17420 2173034502 2173034503 26.90 0.0130 0.000 0.000 0 0
17421 2173034503 2173033605 39.40 0.0130 0.000 0.000 0 0
17429 2173035401_ 2173035501 33.10 0.0130 0.000 0.000 0 0
17430 2173035401 2173035301 27.90 0.0130 0.000 1.541 0 0
17431 2173035402 2173035401 35.50 0.0130 0.000 0.000 0 0
17432 2173035501 2173035502 29.70 0.0130 0.000 0.000 0 0
17433 2173035502 2173036501 33.10 0.0130 0.000 0.000 0 0
17439 2173036501 2173036601_ 30.90 0.0130 0.000 0.000 0 0
17440 2173036502 2173036503 30.40 0.0130 0.000 0.000 0 0
17441 2173036503 2173037501 29.80 0.0130 0.000 0.000 0 0
17442 2173036601_ 2173036502 17.50 0.0130 0.000 0.150 0 0
17444 2173036602 2173036601 7.20 0.0130 0.000 0.000 0 0
17445 2173036603 2173036602 26.10 0.0130 0.000 0.000 0 0
17446 2173036604 2173036603 30.00 0.0130 0.000 0.000 0 0
17447 2173036701 2173036604 31.10 0.0130 0.000 0.000 0 0
17448 2173036702 2173036701 29.20 0.0130 0.000 0.000 0 0
17449 2173036703 2173036702 32.40 0.0130 0.000 0.000 0 0
17461 2173037801 2173037802 36.20 0.0130 0.000 0.000 0 0
17463 2173037802 2173038801 33.30 0.0130 0.000 0.000 0 0
17464 2173037901 2173047002 50.80 0.0130 0.000 0.138 0 0
17477 2173038801 2173038902 31.90 0.0130 0.000 0.000 0 0
17480 2173038901 2173037901 42.10 0.0130 0.000 0.000 0 0
17481 2173038902 2173038903 19.40 0.0130 0.000 0.000 0 0
17482 2173038903 2173038901 40.80 0.0130 0.000 1.816 0 0
17483 2173038904 2173038905 42.40 0.0130 0.000 0.000 0 0
17484 2173038905 2173039901 30.50 0.0130 0.000 0.000 0 0
17500 2173039901 2173049001 42.40 0.0130 0.000 0.000 0 0
17504 2173040001 2172049003 33.30 0.0130 0.000 0.300 0 0
17505 2173040002 2173040001 33.90 0.0130 0.000 0.000 0 0
17506 2173040101 2173040102 31.40 0.0130 0.000 0.000 0 0
17507 2173040102 2173041201 35.20 0.0130 0.000 0.000 0 0
17508 2173040501 2172049403 41.60 0.0130 0.000 0.000 0 0
17523 2173041101 2173040101 38.30 0.0130 0.000 0.000 0 0
17524 2173041102 2173041101 29.40 0.0130 0.000 0.000 0 0
17525 2173041103 2173041104 43.30 0.0130 0.000 0.000 0 0
17526 2173041104 2173042201 47.60 0.0130 0.000 0.000 0 0
17527 2173041105 2173041102 53.50 0.0130 0.000 0.000 0 0
17528 2173041201 2173041202 51.40 0.0130 0.000 0.000 0 0
17529 2173041202 2173041203 33.00 0.0130 0.000 0.000 0 0
17532 2173041401 2173041501 41.40 0.0130 0.000 0.401 0 0
17533 2173041501 2173041502 71.10 0.0130 0.000 0.000 0 0
17534 2173041502 2173041601 73.00 0.0130 0.000 0.000 0 0
17536 2173041601 2173042601 63.30 0.0130 0.000 0.000 0 0
17544 2173042001 2173041105 66.20 0.0130 0.000 0.000 0 0
17547 2173042101 2173042202 72.70 0.0130 0.000 0.000 0 0
17554 2173042302 2173042402 47.70 0.0130 0.000 0.000 0 0
17555 2173042401 2173041401 67.30 0.0130 0.000 0.000 0 0
17557 2173042403 2173042401 35.50 0.0130 0.000 0.000 0 0
17561 2173042406 2173042404 32.40 0.0130 0.000 0.000 0 0
17563 2173042601 2173042701 63.40 0.0130 0.000 0.000 0 0
17564 2173042701 2173042801 69.00 0.0130 0.000 0.000 0 0
17565 2173042801 2173042802 59.70 0.0130 0.000 0.000 0 0
17566 2173042802 2173043901 62.80 0.0130 0.000 0.000 0 0
17573 2173043003 2173043001 50.40 0.0130 0.000 0.000 0 0
17575 2173043005 2173043003 59.60 0.0130 0.000 0.000 0 0
17580 2173043203 2173043303 46.60 0.0130 0.006 0.000 0 0
17582 2173043301 2173042302 47.40 0.0130 0.000 0.000 0 0
17583 2173043302 2173043401 28.80 0.0130 0.000 0.000 0 0
17584 2173043303 2173043301 50.80 0.0130 0.000 0.000 0 0
17585 2173043304 2173043302 23.30 0.0130 0.000 0.000 0 0
17586 2173043305 2173043304 35.20 0.0130 0.000 0.000 0 0
17587 2173043401 2173042406 36.40 0.0130 0.000 0.000 0 0
17588 2173043402 2173042407 32.80 0.0130 0.000 0.000 0 0
17589 2173043403 2173043402 35.60 0.0130 0.000 0.000 0 0
17590 2173043404 2173043403 30.00 0.0130 0.000 0.000 0 0
17591 2173043405 2173043504 37.20 0.0130 0.000 0.000 0 0
17592 2173043406 2173043404 30.00 0.0130 0.000 0.000 0 0
17596 2173043504 2173043502 42.80 0.0130 0.000 0.000 0 0
17598 2173043506 2173043505 12.80 0.0130 0.000 0.000 0 0
17599 2173043601 2173042701 166.40 0.0130 0.000 0.548 0 0
17600 2173043901 2173043902 52.30 0.0130 0.000 0.000 0 0
17601 2173043902 2173053001 36.20 0.0130 0.000 0.000 0 0
17604 2173044101 2173044102 41.40 0.0130 0.000 0.000 0 0
17605 2173044102 2173044103 47.90 0.0130 0.000 0.000 0 0
17606 2173044103 2173044201 38.60 0.0130 0.000 0.150 0 0
17609 2173044106 2173045101 33.30 0.0130 0.000 0.000 0 0
17611 2173044201 2173043202 54.80 0.0130 0.000 0.000 0 0
17612 2173044202 2173044301 57.80 0.0130 0.000 0.000 0 0
17613 2173044203 2173044202 52.00 0.0130 0.000 0.000 0 0
17615 2173044204 2173044203 13.90 0.0130 0.000 0.600 0 0
17616 2173044301 2173043203 29.70 0.0130 0.000 0.000 0 0
17618 2173044302 2173044301 12.50 0.0130 0.000 0.600 0 0
17619 2173044303 2173044302 16.30 0.0130 0.000 0.000 0 0
17620 2173044304 2173044305 25.30 0.0130 0.000 0.150 0 0
17621 2173044305 2173044303 41.20 0.0130 0.000 0.000 0 0
17622 2173044306 2173044305 24.10 0.0130 0.000 0.000 0 0
17623 2173044401 2173043406 15.40 0.0130 0.000 0.000 0 0
17624 2173044402 2173043405 40.00 0.0130 0.000 0.000 0 0
17625 2173044403 2173044402 31.60 0.0130 0.000 0.000 0 0
17626 2173044404 2173044405 16.00 0.0130 0.000 0.150 0 0
17627 2173044405 2173044306 22.20 0.0130 0.000 0.000 0 0
17628 2173044406 2173044506 30.00 0.0130 0.000 0.000 0 0
17630 2173044502 2173043506 34.20 0.0130 0.000 0.000 0 0
17632 2173044504 2173044502 28.30 0.0130 0.000 0.000 0 0
17633 2173044505 2173044602 17.00 0.0130 0.000 0.000 0 0
17634 2173044506 2173044504 24.80 0.0130 0.000 0.000 0 0
17635 2173044507 2173044505 39.20 0.0130 0.000 0.000 0 0
17636 2173044601 2173043601 57.60 0.0130 0.000 0.000 0 0
17637 2173044602 2173044601 30.20 0.0130 0.000 0.000 0 0
17644 2173045101 2173045204 38.80 0.0130 0.000 0.000 0 0
17645 2173045102 2173044106 44.40 0.0130 0.000 0.000 0 0
17646 2173045103 2173045102 17.50 0.0130 0.000 0.000 0 0
17647 2173045104 2173045103 17.50 0.0130 0.000 0.000 0 0
17648 2173045105 2173045104 13.00 0.0130 0.000 0.000 0 0
17652 2173045201 2173044203 10.70 0.0130 0.000 0.150 0 0
17653 2173045202 2173045201 10.70 0.0130 0.000 0.000 0 0
17655 2173045203 2173044204 22.80 0.0130 0.000 0.000 0 0
17656 2173045204 2173045202 13.50 0.0130 0.000 0.000 0 0
17658 2173045205 2173045203 24.40 0.0130 0.000 0.000 0 0
17661 2173045210 2173045204 64.30 0.0130 0.000 0.450 0 0
17662 2173045301 2173045205 25.80 0.0130 0.000 0.000 0 0
17663 2173045302 2173045301 22.10 0.0130 0.000 0.000 0 0
17664 2173045303 2173045302 20.90 0.0130 0.000 0.000 0 0
17665 2173045304 2173045303 14.70 0.0130 0.000 0.000 0 0
17666 2173045305 2173045304 17.50 0.0130 0.000 0.000 0 0
17667 2173045306 2173045305 16.90 0.0130 0.000 0.000 0 0
17669 2173045401 2173044405 38.40 0.0130 0.000 0.000 0 0
17670 2173045402 2173044406 32.80 0.0130 0.000 0.000 0 0
17671 2173045501 2173044507 30.50 0.0130 0.000 0.000 0 0
17672 2173045502 2173045501 32.20 0.0130 0.000 0.000 0 0
17673 2173045503 2173045502 33.80 0.0130 0.000 0.000 0 0
17675 2173045504 2173045503 11.20 0.0130 0.000 0.600 0 0
17676 2173045505 2173045504 27.80 0.0130 0.000 0.000 0 0
17679 2173045603 2173045601 26.40 0.0130 0.000 0.000 0 0
17680 2173045604 2173045603 29.20 0.0130 0.000 0.000 0 0
17682 2173045901 2173053101 209.20 0.0130 0.000 0.100 0 0
17689 2173046104 2173046102 42.00 0.0130 0.000 0.000 0 0
17691 2173046106 2173046104 28.00 0.0130 0.000 0.000 0 0
17694 2173046203 2173046202 31.60 0.0130 0.000 0.000 0 0
17695 2173046301 2173045210 81.40 0.0130 0.000 0.000 0 0
17696 2173046401 2173045503 44.40 0.0130 0.000 0.000 0 0
17697 2173046402 2173045306 19.50 0.0130 0.000 0.000 0 0
17698 2173046403 2173046402 13.60 0.0130 0.000 0.000 0 0
17699 2173046404 2173046403 14.50 0.0130 0.000 0.000 0 0
17700 2173046405 2173046404 21.10 0.0130 0.000 0.000 0 0
17701 2173046406 2173046401 44.40 0.0130 0.000 0.000 0 0
17703 2173046409 2173046406 21.60 0.0130 0.000 0.000 0 0
17705 2173046410 2173046301 88.90 0.0130 0.000 0.000 0 0
17706 2173046412 2173046409 40.50 0.0130 0.000 0.600 0 0
17707 2173046413 2173046409 30.50 0.0130 0.000 0.000 0 0
17709 2173046414 2173046413 25.20 0.0130 0.000 0.300 0 0
17710 2173046501 2173045505 33.60 0.0130 0.000 0.000 0 0
17711 2173046601 2173045604 31.40 0.0130 0.000 0.000 0 0
17712 2173046602 2173046501 36.90 0.0130 0.000 0.000 0 0
17713 2173046603 2173046602 49.00 0.0130 0.000 0.000 0 0
17720 2173046707 2173046704 23.70 0.0130 0.000 0.000 0 0
17722 2173046709 2173046707 38.80 0.0130 0.000 0.000 0 0
17726 2173046901 2173045901 58.20 0.0130 0.000 0.000 0 0
17727 2173046902 2173046901 52.80 0.0130 0.000 0.000 0 0
17731 2173047001 2173046106 39.20 0.0130 0.000 0.000 0 0
17732 2173047002 2173046003 50.20 0.0130 0.000 0.000 0 0
17733 2173047003 2173047001 42.20 0.0130 0.000 0.000 0 0
17734 2173047004 2173047003 37.20 0.0130 0.000 0.000 0 0
17735 2173047005 2173047004 24.40 0.0130 0.000 0.000 0 0
17736 2173047101 2173046106 41.70 0.0130 0.000 0.000 0 0
17737 2173047102 2173047101 32.80 0.0130 0.000 0.000 0 0
17738 2173047103 2173047202 43.60 0.0130 0.000 0.000 0 0
17739 2173047104 2173047102 43.30 0.0130 0.000 0.000 0 0
17740 2173047105 2173047103 25.60 0.0130 0.000 0.000 0 0
17745 2173047301 2173046203 35.00 0.0130 0.000 0.000 0 0
17746 2173047302 2173047301 64.60 0.0130 0.000 0.000 0 0
17750 2173047402 2173046414 30.50 0.0130 0.000 0.000 0 0
17753 2173047501 2173046412 41.60 0.0130 0.000 0.000 0 0
17754 2173047502 2173047501 38.00 0.0130 0.000 0.000 0 0
17755 2173047503 2173047402 42.40 0.0130 0.000 0.000 0 0
17756 2173047504 2173047502 40.80 0.0130 0.000 0.000 0 0
17757 2173047505 2173047503 39.70 0.0130 0.000 0.000 0 0
17758 2173047506 2173047505 26.40 0.0130 0.000 0.000 0 0
17759 2173047601 2173047703 35.80 0.0130 0.000 0.000 0 0
17760 2173047602 2173047504 41.30 0.0130 0.000 0.000 0 0
17761 2173047603 2173047601 37.20 0.0130 0.000 0.000 0 0
17762 2173047604 2173047506 37.20 0.0130 0.000 0.000 0 0
17764 2173047702 2173047701 27.20 0.0130 0.000 0.000 0 0
17765 2173047703 2173047701 32.80 0.0130 0.000 0.000 0 0
17766 2173047704 2173047702 32.80 0.0130 0.000 0.000 0 0
17767 2173047801 2173047802 33.20 0.0130 0.000 0.000 0 0
17768 2173047802 2173047803 41.00 0.0130 0.000 0.000 0 0
17769 2173047803 2173047902 38.30 0.0130 0.000 0.000 0 0
17770 2173047804 2173047704 41.60 0.0130 0.000 0.000 0 0
17771 2173047805 2173047804 50.00 0.0130 0.000 0.000 0 0
17773 2173047902 2173047903 38.30 0.0130 0.000 0.000 0 0
17774 2173047903 2173047904 27.70 0.0130 0.000 0.290 0 0
17775 2173047904 2173057005 41.20 0.0130 0.000 0.050 0 0
17777 2173048001 2173048002 22.00 0.0130 0.000 0.000 0 0
17778 2173048002 2173048004 26.20 0.0130 0.000 0.000 0 0
17779 2173048003 2173047005 37.20 0.0130 0.000 0.000 0 0
17780 2173048004 2173048101 30.50 0.0130 0.000 0.000 0 0
17781 2173048005 2173048006 17.70 0.0130 0.000 0.000 0 0
17782 2173048006 2173048007 30.00 0.0130 0.000 0.030 0 0
17783 2173048007 2173048008 21.30 0.0130 0.000 0.010 0 0
17784 2173048008 2173048106 12.00 0.0130 0.000 0.010 0 0
17785 2173048101 2173047104 33.60 0.0130 0.000 0.000 0 0
17786 2173048102 2173047105 28.80 0.0130 0.000 0.000 0 0
17787 2173048103 2173048102 35.60 0.0130 0.000 0.000 0 0
17788 2173048104 2173048103 27.20 0.0130 0.000 0.000 0 0
17790 2173048106 2173048104 35.60 0.0130 0.000 0.000 0 0
17791 2173048201 2173047204 37.70 0.0130 0.000 0.000 0 0
17797 2173048303 2173048301 30.50 0.0130 0.000 0.000 0 0
17799 2173048305 2173048303 33.80 0.0130 0.000 0.000 0 0
17802 2173048403 2173048305 39.40 0.0130 0.000 0.000 0 0
17805 2173048503 2173048604 39.40 0.0130 0.000 0.000 0 0
17807 2173048601 2173047603 28.80 0.0130 0.012 0.000 0 0
17808 2173048601 2173047604 42.70 0.0130 0.000 0.000 0 0
17809 2173048602 2173047603 47.20 0.0130 0.000 0.000 0 0
17810 2173048603 2173048601 39.10 0.0130 0.000 0.150 0 0
17811 2173048604 2173048601 41.40 0.0130 0.000 0.062 0 0
17812 2173048701 2173048602 25.60 0.0130 0.000 0.000 0 0
17813 2173048702 2173048603 33.30 0.0130 0.000 0.000 0 0
17814 2173048703 2173048701 41.20 0.0130 0.000 0.000 0 0
17815 2173048704 2173048702 29.70 0.0130 0.000 0.000 0 0
17816 2173048705 2173048703 40.60 0.0130 0.000 0.000 0 0
17817 2173048801 2173047805 40.50 0.0130 0.000 0.000 0 0
17818 2173048802 2173048801 35.60 0.0130 0.000 0.000 0 0
17819 2173048803 2173048903 39.60 0.0130 0.000 0.000 0 0
17820 2173048901 2173047904 33.30 0.0130 0.000 0.000 0 0
17821 2173048902 2173048901 41.00 0.0130 0.000 0.000 0 0
17822 2173048903 2173048902 32.30 0.0130 0.000 0.000 0 0
17824 2173048904 2173048903 25.70 0.0130 0.000 0.513 0 0
17825 2173049001 2173049002 32.00 0.0130 0.000 0.000 0 0
17826 2173049002 2174040001 34.10 0.0130 0.000 0.000 0 0
17830 2173049201 2173048204 34.40 0.0130 0.000 0.000 0 0
17831 2173049202 2173049201 28.60 0.0130 0.000 0.000 0 0
17832 2173049203 2173049202 32.40 0.0130 0.000 0.000 0 0
17833 2173049204 2173049202 38.60 0.0130 0.000 0.300 0 0
17834 2173049205 2173049203 34.10 0.0130 0.000 0.000 0 0
17835 2173049206 2173049204 35.80 0.0130 0.000 0.000 0 0
17836 2173049207 2173049205 36.80 0.0130 0.000 0.166 0 0
17837 2173049301 2173048204 33.60 0.0130 0.000 0.150 0 0
17838 2173049302 2173049301 28.30 0.0130 0.000 0.000 0 0
17839 2173049303 2173049302 40.70 0.0130 0.000 0.000 0 0
17840 2173049304 2173049303 29.40 0.0130 0.000 0.000 0 0
17841 2173049401 2173048403 32.20 0.0130 0.000 0.000 0 0
17842 2173049402 2173049401 36.40 0.0130 0.000 0.000 0 0
17843 2173049403 2173049402 38.00 0.0130 0.000 0.000 0 0
17844 2173049404 2173049403 17.10 0.0130 0.000 0.000 0 0
17845 2173049405 2173049404 26.90 0.0130 0.000 0.000 0 0
17846 2173049501 2173048503 36.00 0.0130 0.000 0.000 0 0
17850 2173049601 2173049501 45.20 0.0130 0.000 0.000 0 0
17851 2173049602 2173049601 32.00 0.0130 0.000 0.000 0 0
17852 2173049603 2173049602 28.80 0.0130 0.000 0.000 0 0
17853 2173049701 2173048704 36.10 0.0130 0.000 0.000 0 0
17854 2173049702 2173049701 34.10 0.0130 0.000 0.000 0 0
17855 2173049801 2173048705 29.10 0.0130 0.000 0.000 0 0
17856 2173049802 2173048803 36.10 0.0130 0.000 0.000 0 0
17857 2173049803 2173049801 29.20 0.0130 0.000 0.000 0 0
17858 2173049804 2173049802 37.50 0.0130 0.000 0.000 0 0
17859 2173049805 2173049702 38.20 0.0130 0.000 0.000 0 0
17860 2173049806 2173049804 9.40 0.0130 0.000 0.590 0 0
17861 2173049807 2173049806 26.90 0.0130 0.000 0.000 0 0
17862 2173049808 2173049804 30.40 0.0130 0.000 0.000 0 0
17864 2173049901 2173048904 42.40 0.0130 0.000 0.000 0 0
17865 2173049901 2173058007 55.20 0.0130 0.308 0.000 0 0
17866 2173049902 2173049901 33.20 0.0130 0.000 0.308 0 0
17867 2173049903 2173059005 29.00 0.0130 0.000 0.000 0 0
17868 2173049904 2173049902 38.90 0.0130 0.000 0.000 0 0
17869 2173049905 2173049807 36.90 0.0130 0.000 0.000 0 0
17878 2173050301_ 2172059303 31.60 0.0130 0.000 0.000 0 0
17879 2173050301 2173050302 32.80 0.0130 0.000 0.000 0 0
17880 2173050302 2173050401 33.10 0.0130 0.000 0.000 0 0
17881 2173050401 2173051401 38.90 0.0130 0.000 0.000 0 0
17882 2173050601 2173050602 18.00 0.0130 0.000 0.000 0 0
17889 2173051401 2173051402 36.70 0.0130 0.000 0.200 0 0
17890 2173051402 2173051501 33.40 0.0130 0.000 0.000 0 0
17891 2173051501 2173051502 29.10 0.0130 0.000 0.000 0 0
17892 2173051502 2173052501 37.20 0.0130 0.000 0.000 0 0
17914 2173052501 2173052502 26.90 0.0130 0.000 0.000 0 0
17915 2173052502 2173052603 59.60 0.0130 0.000 0.000 0 0
17937 2173053001 2173053002 52.50 0.0130 0.000 0.000 0 0
17938 2173053002 2173053101 68.60 0.0130 0.000 0.000 0 0
17939 2173053101 2173054101 53.00 0.0130 0.000 0.000 0 0
17941 2173053201 2173053202 37.60 0.0130 0.000 0.000 0 0
17942 2173053202 2173053203 33.60 0.0130 0.000 0.000 0 0
17943 2173053203 2173053301 84.70 0.0130 0.000 0.000 0 0
17945 2173053301 2173053401 37.20 0.0130 0.000 0.000 0 0
17947 2173053401 2173053402 46.90 0.0130 0.000 0.000 0 0
17948 2173053402 2173053403 42.70 0.0130 0.000 0.000 0 0
17949 2173053403 2173054512 41.70 0.0130 0.000 0.000 0 0
17973 2173054101 2173054201 62.50 0.0130 0.000 0.000 0 0
17974 2173054201 2173054202 66.30 0.0130 0.000 0.000 0 0
17975 2173054202 2173054301 77.60 0.0130 0.000 0.000 0 0
17976 2173054301 2173054401 51.60 0.0130 0.000 0.000 0 0
17977 2173054401 2173055401 67.60 0.0130 0.000 0.000 0 0
17983 2173054505 2173054611 28.20 0.0130 0.000 0.105 0 0
17985 2173054506 2173054509 35.60 0.0130 0.000 0.030 0 0
17986 2173054507 2173055503 40.00 0.0130 0.000 0.000 0 0
17987 2173054508 2173054510 15.50 0.0130 0.000 0.000 0 0
17988 2173054509 2173054605 22.80 0.0130 0.000 0.000 0 0
17989 2173054509 2173054511 4.70 0.0130 0.818 0.001 0 0
17990 2173054510 2173054511 7.60 0.0130 0.000 0.097 0 0
17991 2173054511 2173054606 11.90 0.0130 0.000 0.000 0 0
17993 2173054512 2173054506 34.70 0.0130 0.000 0.000 0 0
17994 2173054513 2173054509 13.00 0.0130 0.083 1.118 0 0
17995 2173054513 2173054601 6.90 0.0130 0.000 0.000 0 0
17998 2173054601 2173054602 15.90 0.0130 0.000 0.000 0 0
17999 2173054602 2173054603 4.40 0.0130 0.000 0.000 0 0
18000 2173054603 2173054604 4.40 0.0130 0.000 0.500 0 0
18001 2173054604 2173054609 56.40 0.0130 0.000 0.000 0 0
18002 2173054605 2173054604 3.70 0.0130 0.823 0.377 0 0
18003 2173054605 2173054608 35.80 0.0130 0.542 0.000 0 0
18004 2173054606 2173054607 9.90 0.0130 0.000 0.000 0 0
18005 2173054607 2173054605 4.60 0.0130 0.000 0.778 0 0
18006 2173054607 2173054605 4.70 0.0130 0.001 0.778 0 0
18007 2173054608 2173054610 30.80 0.0130 0.000 0.000 0 0
18008 2173054609 2173054701 56.60 0.0130 0.000 0.000 0 0
18009 2173054610 2173054702 40.30 0.0130 0.000 0.000 0 0
18010 2173054611 2173054507 28.90 0.0130 0.000 0.000 0 0
18026 2173055401 2173055505 52.20 0.0130 0.000 0.000 0 0
18029 2173055503 2173055601 33.20 0.0130 0.000 0.908 0 0
18031 2173055505 2173055506 44.00 0.0130 0.000 0.000 0 0
18032 2173055506 2173055507 5.60 0.0130 0.000 0.000 0 0
18033 2173055507 2173055601 39.40 0.0130 0.000 0.000 0 0
18034 2173055601 2173055602 25.20 0.0130 0.000 0.000 0 0
18035 2173055602 2173055603 18.10 0.0130 0.000 0.000 0 0
18036 2173055603 2173055604 26.90 0.0130 0.000 0.000 0 0
18037 2173055604 2173055701 31.50 0.0130 0.000 0.000 0 0
18038 2173055605 2173055507 47.00 0.0130 0.000 0.208 0 0
18039 2173055606 2173055605 31.60 0.0130 0.000 0.000 0 0
18042 2173056601 2173055606 31.20 0.0130 0.000 0.000 0 0
18043 2173056602 2173056601 31.90 0.0130 0.000 0.000 0 0
18044 2173056701 2173056602 28.00 0.0130 0.000 0.000 0 0
18051 2173057001 2173046902 59.60 0.0130 0.000 0.000 0 0
18056 2173057005 2173057003 48.80 0.0130 0.000 0.000 0 0
18070 2173058001 2173047904 27.00 0.0130 0.000 0.590 0 0
18072 2173058003 2173058001 31.30 0.0130 0.000 0.000 0 0
18074 2173058005 2173058004 29.70 0.0130 0.000 0.000 0 0
18076 2173058007 2173058005 24.80 0.0130 0.000 0.000 0 0
18077 2173058101 2173057105 48.80 0.0130 0.000 0.000 0 0
18078 2173058102 2173058101 43.10 0.0130 0.000 0.000 0 0
18079 2173058103 2173058102 28.20 0.0130 0.000 0.000 0 0
18082 2173058106 2173058205 50.20 0.0130 0.000 0.000 0 0
18085 2173058203 2173058202 7.80 0.0130 0.000 0.000 0 0
18087 2173058205 2173058203 38.20 0.0130 0.000 0.000 0 0
18088 2173058206 2173058302 25.10 0.0130 0.000 0.000 0 0
18089 2173058301 2173058303 19.10 0.0130 0.000 0.000 0 0
18091 2173058303 2173058306 30.00 0.0130 0.000 0.174 0 0
18093 2173058305 2173058304 12.10 0.0130 0.000 0.000 0 0
18094 2173058306 2173058305 18.40 0.0130 0.000 0.000 0 0
18096 2173058308 2173058306 18.90 0.0130 0.000 0.000 0 0
18097 2173058401 2173058301 43.40 0.0130 0.000 0.000 0 0
18098 2173058402 2173059401 20.50 0.0130 0.000 0.000 0 0
18101 2173059001 2173058104 35.40 0.0130 0.000 0.000 0 0
18102 2173059002 2173059001 24.40 0.0130 0.000 0.000 0 0
18103 2173059003 2173059001 36.10 0.0130 0.000 0.000 0 0
18104 2173059004 2173059002 11.30 0.0130 0.000 0.000 0 0
18105 2173059005 2173059007 35.40 0.0130 0.000 0.000 0 0
18106 2173059006 2173059103 40.30 0.0130 0.000 0.000 0 0
18107 2173059007 2174050001 32.00 0.0130 0.000 0.000 0 0
18110 2173059103 2173059101 34.00 0.0130 0.000 0.000 0 0
18112 2173059105 2173059104 26.20 0.0130 0.000 0.000 0 0
18113 2173059201 2173058206 43.20 0.0130 0.000 0.000 0 0
18114 2173059202 2173059201 49.60 0.0130 0.000 0.000 0 0
18116 2173059204 2173059104 47.50 0.0130 0.000 0.000 0 0
18117 2173059301 2173058308 27.20 0.0130 0.000 0.000 0 0
18119 2173059401 2173059402 25.10 0.0130 0.000 0.000 0 0
18120 2173059402 2173059501 22.20 0.0130 0.000 0.150 0 0
18121 2173059403 2173059301 19.70 0.0130 0.000 0.000 0 0
18122 2173059404 2173059403 8.00 0.0130 0.000 0.000 0 0
18123 2173059405 2173059404 30.10 0.0130 0.000 0.000 0 0
18124 2173059406 2173059405 24.60 0.0130 0.000 0.000 0 0
18125 2173059407 2173059406 26.40 0.0130 0.000 0.000 0 0
18126 2173059408 2173059407 13.20 0.0130 0.000 0.000 0 0
18127 2173059501 2173059502 31.20 0.0130 0.000 0.000 0 0
18128 2173059502 2173059503 26.10 0.0130 0.000 0.000 0 0
18129 2173059503 2173059504 21.60 0.0130 0.000 0.000 0 0
18130 2173059504 2173059505 22.50 0.0130 0.000 0.000 0 0
18131 2173059505 2173059601 17.50 0.0130 0.000 0.150 0 0
18132 2173059601 2174050601 18.10 0.0130 0.000 0.000 0 0
20561 2174031101 2174030104 34.00 0.0130 0.000 0.000 0 0
20566 2174031203 2174031306 128.30 0.0130 0.000 0.000 0 0
20573 2174031306 2174031405 72.10 0.0130 0.000 0.000 0 0
20580 2174031405 2174031409 14.10 0.0130 0.000 0.000 0 0
20592 2174031701 2174031704 45.30 0.0130 0.000 0.000 0 0
20595 2174031704 2174032601 38.00 0.0130 0.000 0.000 0 0
20603 2174032201 2174032202 4.50 0.0130 0.000 0.000 0 0
20604 2174032202 2174033201 43.50 0.0130 0.000 0.000 0 0
20605 2174032203 2174033202 43.10 0.0130 0.000 0.000 0 0
20608 2174032303 2174032201 13.70 0.0130 0.000 0.000 0 0
20609 2174032304 2174032306 12.20 0.0130 0.000 0.000 0 0
20612 2174032305 2174032203 9.40 0.0130 0.000 0.000 0 0
20614 2174032306 2174032307 16.60 0.0130 0.000 0.000 0 0
20615 2174032307 2174033301 9.10 0.0130 0.000 0.000 0 0
20617 2174032601 2174032603 23.10 0.0130 0.000 0.000 0 0
20628 2174033201 2174033203 41.10 0.0130 0.000 0.000 0 0
20629 2174033202 2174033204 41.40 0.0130 0.000 0.000 0 0
20630 2174033203 2174033206 22.60 0.0130 0.000 0.000 0 0
20631 2174033204 2174033207 22.50 0.0130 0.000 0.000 0 0
20632 2174033205 2174033309 16.30 0.0130 0.000 0.000 0 0
20633 2174033206 2174034202 50.10 0.0130 0.000 0.000 0 0
20634 2174033207 2174034203 50.10 0.0130 0.000 0.000 0 0
20635 2174033301 2174033302 4.10 0.0130 0.000 0.000 0 0
20636 2174033302 2174033304 17.50 0.0130 0.000 0.000 0 0
20638 2174033304 2174033306 13.20 0.0130 0.000 0.000 0 0
20640 2174033306 2174033205 21.00 0.0130 0.000 0.000 0 0
20642 2174033308 2174033310 19.60 0.0130 0.000 0.000 0 0
20643 2174033309 2174034201 41.20 0.0130 0.000 0.000 0 0
20644 2174033310 2174034301 40.30 0.0130 0.000 0.000 0 0
20767 2174040001 2174040003 34.40 0.0130 0.000 0.000 0 0
20776 2174040102 2173049205 36.10 0.0130 0.000 0.000 0 0
20777 2174040103 2174040104 42.80 0.0130 0.000 0.000 0 0
20778 2174040104 2174040105 16.50 0.0130 0.000 0.075 0 0
20779 2174040105 2174040102 36.10 0.0130 0.000 0.000 0 0
20780 2174040106 2174040103 23.40 0.0130 0.000 0.075 0 0
20781 2174040107 2174040106 29.40 0.0130 0.000 0.000 0 0
20782 2174040201 2174040105 27.00 0.0130 0.000 0.150 0 0
20783 2174040202 2174040201 20.80 0.0130 0.000 0.000 0 0
20784 2174040203 2174040202 32.80 0.0130 0.000 0.000 0 0
20785 2174040204 2174040203 41.00 0.0130 0.000 0.000 0 0
20786 2174040301 2173049304 28.30 0.0130 0.000 0.000 0 0
20787 2174040302 2174040301 41.60 0.0130 0.000 0.150 0 0
20788 2174040303 2174040302 39.80 0.0130 0.000 0.000 0 0
20789 2174040401 2173049504 26.60 0.0130 0.000 0.000 0 0
20790 2174040402 2174040301 42.20 0.0130 0.000 0.000 0 0
20791 2174040403 2174040401 40.00 0.0130 0.000 0.000 0 0
20792 2174040404 2174040403 21.60 0.0130 0.000 0.000 0 0
20793 2174040405 2174040402 38.70 0.0130 0.000 0.000 0 0
20795 2174040502 2174040601 34.50 0.0130 0.000 0.000 0 0
20798 2174040601 2174040602 33.50 0.0130 0.000 0.000 0 0
20799 2174040602 2174040603 40.00 0.0130 0.000 0.000 0 0
20800 2174040603 2174040704 35.70 0.0130 0.000 0.000 0 0
20801 2174040701 2173049603 31.20 0.0130 0.000 0.000 0 0
20802 2174040702 2174040701 36.40 0.0130 0.000 0.000 0 0
20803 2174040703 2174040705 34.70 0.0130 0.000 0.000 0 0
20804 2174040704 2174040706 32.00 0.0130 0.000 0.000 0 0
20805 2174040705 2174041801 51.20 0.0130 0.000 0.300 0 0
20806 2174040706 2174040703 33.60 0.0130 0.000 0.000 0 0
20810 2174040901 2173049905 29.20 0.0130 0.000 0.000 0 0
20811 2174040902 2174040901 22.50 0.0130 0.000 0.000 0 0
20813 2174040904 2174040902 21.60 0.0130 0.000 0.000 0 0
20814 2174040905 2174040903 18.60 0.0130 0.000 0.000 0 0
20815 2174040906 2174040905 26.20 0.0130 0.000 0.000 0 0
20816 2174040907 2174040904 42.90 0.0130 0.000 0.000 0 0
20817 2174040908 2174040906 31.50 0.0130 0.000 0.000 0 0
20822 2174041101 2174040107 35.40 0.0130 0.000 0.000 0 0
20823 2174041102 2174041101 37.40 0.0130 0.000 0.000 0 0
20824 2174041103 2174041101 33.10 0.0130 0.000 0.212 0 0
20825 2174041104 2174041103 34.00 0.0130 0.000 0.000 0 0
20826 2174041105 2174041104 39.40 0.0130 0.000 0.000 0 0
20827 2174041201 2174041102 26.30 0.0130 0.000 0.000 0 0
20828 2174041202 2174041201 29.10 0.0130 0.000 0.000 0 0
20829 2174041203 2174041202 20.40 0.0130 0.000 0.000 0 0
20830 2174041204 2174041201 27.80 0.0130 0.000 0.208 0 0
20831 2174041205 2174041203 42.40 0.0130 0.000 0.000 0 0
20832 2174041206 2174041205 15.60 0.0130 0.000 0.150 0 0
20833 2174041207 2174041204 27.80 0.0130 0.000 0.000 0 0
20834 2174041208 2174041206 41.60 0.0130 0.000 0.000 0 0
20835 2174041301 2174040303 35.10 0.0130 0.000 0.000 0 0
20836 2174041302 2174041301 35.00 0.0130 0.000 0.000 0 0
20837 2174041303 2174041403 40.40 0.0130 0.000 0.000 0 0
20838 2174041304 2174041302 21.80 0.0130 0.000 0.000 0 0
20839 2174041305 2174041303 32.20 0.0130 0.000 0.000 0 0
20840 2174041401 2174040405 27.20 0.0130 0.000 0.000 0 0
20841 2174041402 2174041501 35.50 0.0130 0.000 0.000 0 0
20842 2174041403 2174041401 23.90 0.0130 0.000 0.000 0 0
20843 2174041404 2174041504 42.20 0.0130 0.000 0.000 0 0
20844 2174041405 2174041404 27.10 0.0130 0.000 0.000 0 0
20845 2174041501 2174041502 31.60 0.0130 0.000 0.000 0 0
20847 2174041503 2174041502 30.10 0.0130 0.000 0.000 0 0
20848 2174041504 2174041502 25.10 0.0130 0.000 0.000 0 0
20849 2174041601 2174041503 40.80 0.0130 0.000 0.000 0 0
20850 2174041602 2174041601 34.50 0.0130 0.000 0.000 0 0
20851 2174041603 2174041602 40.00 0.0130 0.000 0.000 0 0
20855 2174041704 2174041803 55.10 0.0130 0.000 0.000 0 0
20856 2174041705 2174041704 19.30 0.0130 0.000 0.300 0 0
20860 2174041803 2174041801 31.10 0.0130 0.000 0.000 0 0
20863 2174041806 2174041705 41.40 0.0130 0.000 0.000 0 0
20864 2174041807 2174041806 42.20 0.0130 0.000 0.000 0 0
20865 2174041901 2174040908 37.00 0.0130 0.000 0.000 0 0
20870 2174042201 2174041208 27.80 0.0130 0.000 0.000 0 0
20871 2174042202 2174042201 39.40 0.0130 0.000 0.000 0 0
20872 2174042203 2174042202 30.60 0.0130 0.000 0.000 0 0
20873 2174042204 2174042303 21.60 0.0130 0.000 0.000 0 0
20874 2174042301 2174041305 42.20 0.0130 0.000 0.000 0 0
20875 2174042302 2174042301 36.90 0.0130 0.000 0.000 0 0
20876 2174042303 2174042302 27.70 0.0130 0.000 0.000 0 0
20877 2174042401 2174041405 17.20 0.0130 0.000 0.000 0 0
20878 2174042402 2174042401 34.20 0.0130 0.000 0.000 0 0
20879 2174042403 2174042404 25.70 0.0130 0.000 0.000 0 0
20880 2174042404 2174042501 31.80 0.0130 0.000 0.000 0 0
20881 2174042501 2174042502 69.10 0.0130 0.000 0.000 0 0
20882 2174042502 2174042604 36.90 0.0130 0.000 0.000 0 0
20886 2174042604 2174042605 47.10 0.0130 0.000 0.000 0 0
20888 2174042605 2174042704 51.90 0.0130 0.000 0.000 0 0
20892 2174042704 2174043701 40.80 0.0130 0.000 0.000 0 0
20897 2174042902 2174042901 9.10 0.0130 0.000 0.000 0 0
20898 2174042903 2174042901 34.00 0.0130 0.000 0.150 0 0
20899 2174042904 2174042903 30.60 0.0130 0.000 0.000 0 0
20900 2174042905 2174042904 33.10 0.0130 0.000 0.150 0 0
20901 2174042906 2174042902 65.40 0.0130 0.000 0.000 0 0
20902 2174042907 2174042906 13.00 0.0130 0.000 0.000 0 0
20912 2174043203 2174043204 13.90 0.0130 0.000 0.000 0 0
20914 2174043301 2174042204 30.10 0.0130 0.000 0.300 0 0
20915 2174043302 2174043301 46.50 0.0130 0.000 0.000 0 0
20916 2174043303 2174043302 44.00 0.0130 0.000 0.000 0 0
20917 2174043401 2174043303 32.40 0.0130 0.000 0.000 0 0
20918 2174043402 2174043401 42.80 0.0130 0.000 0.000 0 0
20919 2174043403 2174043402 29.40 0.0130 0.000 0.000 0 0
20920 2174043501 2174043403 23.30 0.0130 0.000 0.000 0 0
20921 2174043502 2174043501 28.60 0.0130 0.000 0.000 0 0
20922 2174043701 2174043801 44.10 0.0130 0.000 0.000 0 0
20923 2174043801 2174043802 35.70 0.0130 0.000 0.000 0 0
20924 2174043802 2174043803 29.60 0.0130 0.000 0.000 0 0
20925 2174043803 2174043902 32.00 0.0130 0.000 0.000 0 0
20926 2174043901 2174042907 21.30 0.0130 0.000 0.000 0 0
20927 2174043902 2174043903 9.50 0.0130 0.000 0.234 0 0
20928 2174043903 2174043901 27.10 0.0130 0.000 0.000 0 0
20929 2174043904 2174043903 7.30 0.0130 0.000 0.000 0 0
20930 2174043905 2174043904 27.30 0.0130 0.000 0.000 0 0
21139 2174050001 2174050002 25.50 0.0130 0.000 0.000 0 0
21140 2174050002 2174050102 39.10 0.0130 0.000 0.000 0 0
21141 2174050003 2174050103 54.50 0.0130 0.000 0.000 0 0
21142 2174050004 2174040907 39.70 0.0130 0.000 0.000 0 0
21143 2174050101 2173059105 46.70 0.0130 0.000 0.000 0 0
21144 2174050102 2174050101 36.20 0.0130 0.000 0.000 0 0
21145 2174050103 2174050102 11.30 0.0130 0.000 0.000 0 0
21146 2174050104 2174050203 37.50 0.0130 0.000 0.000 0 0
21147 2174050105 2174050103 30.40 0.0130 0.000 0.150 0 0
21148 2174050106 2174050105 24.80 0.0130 0.000 0.000 0 0
21150 2174050202 2173059204 35.40 0.0130 0.000 0.000 0 0
21151 2174050203 2174050202 21.40 0.0130 0.000 0.000 0 0
21152 2174050204 2174050201 43.10 0.0130 0.000 0.000 0 0
21153 2174050205 2174050204 38.60 0.0130 0.000 0.000 0 0
21157 2174050304 2174050302 30.50 0.0130 0.000 0.000 0 0
21158 2174050305 2174050402 35.80 0.0130 0.000 0.000 0 0
21159 2174050401 2173059408 29.40 0.0130 0.000 0.000 0 0
21163 2174050405 2174050403 12.80 0.0130 0.000 0.000 0 0
21165 2174050501 2174050401 11.70 0.0130 0.000 0.000 0 0
21166 2174050502 2173059601 11.60 0.0130 0.000 0.000 0 0
21167 2174050503 2174050502 16.10 0.0130 0.000 0.000 0 0
21168 2174050504 2174050401 15.60 0.0130 0.000 0.000 0 0
21169 2174050505 2174050605 46.20 0.0130 0.000 0.000 0 0
21170 2174050505 2174050503 7.90 0.0130 0.000 0.000 0 0
21171 2174050506 2174050504 17.20 0.0130 0.000 0.000 0 0
21172 2174050507 2174050505 20.40 0.0130 0.000 0.000 0 0
21173 2174050508 2174050509 29.50 0.0130 0.000 0.050 0 0
21174 2174050509 2174050507 19.20 0.0130 0.000 0.000 0 0
21175 2174050510 2174050509 13.00 0.0130 0.000 0.000 0 0
21176 2174050511 2174050510 23.40 0.0130 0.000 0.000 0 0
21177 2174050601 2174050602 34.10 0.0130 0.000 0.000 0 0
21178 2174050602 2174050603 31.90 0.0130 0.000 0.150 0 0
21179 2174050603 2174050702 27.70 0.0130 0.000 0.000 0 0
21180 2174050604 2174050603 7.20 0.0130 0.000 0.077 0 0
21181 2174050605 2174050606 43.60 0.0130 0.000 0.016 0 0
21182 2174050606 2174050603 35.80 0.0130 0.000 0.000 0 0
21183 2174050607 2174050605 38.10 0.0130 0.000 0.000 0 0
21184 2174050608 2174050606 27.80 0.0130 0.000 0.150 0 0
21186 2174050702 2174050701 22.00 0.0130 0.000 0.000 0 0
21196 2174051001 2174050004 37.50 0.0130 0.000 0.000 0 0
21197 2174051002 2174041901 44.60 0.0130 0.000 0.000 0 0
21198 2174051003 2174051001 35.40 0.0130 0.000 0.000 0 0
21199 2174051004 2174051002 41.20 0.0130 0.000 0.000 0 0
21200 2174051005 2174051004 39.60 0.0130 0.000 0.000 0 0
21201 2174051101 2174050106 42.50 0.0130 0.000 0.000 0 0
21202 2174051102 2174051003 42.40 0.0130 0.000 0.000 0 0
21203 2174051201 2174050205 43.10 0.0130 0.000 0.000 0 0
21204 2174051202 2174051201 28.20 0.0130 0.000 0.000 0 0
21205 2174051203 2174051202 47.80 0.0130 0.000 0.000 0 0
21206 2174051301 2174050304 49.80 0.0130 0.000 0.000 0 0
21207 2174051302 2174050305 35.40 0.0130 0.000 0.000 0 0
21208 2174051303 2174051302 35.80 0.0130 0.000 0.000 0 0
21209 2174051304 2174051303 41.40 0.0130 0.000 0.000 0 0
21211 2174051402 2174050405 29.10 0.0130 0.000 0.000 0 0
21212 2174051403 2174051402 44.90 0.0130 0.000 0.000 0 0
21218 2174051601 2174050607 25.10 0.0130 0.000 0.000 0 0
21219 2174051602 2174050606 39.40 0.0130 0.000 0.150 0 0
21220 2174051603 2174051602 34.00 0.0130 0.000 0.000 0 0
21221 2174051604 2174051603 28.50 0.0130 0.000 0.000 0 0
21225 2174051701 2174050608 24.80 0.0130 0.000 0.000 0 0
21253 2174052001 2174042904 36.90 0.0130 0.000 0.000 0 0
21254 2174052002 2174052001 24.70 0.0130 0.000 0.000 0 0
21255 2174052003 2174052002 30.60 0.0130 0.000 0.000 0 0
21256 2174052004 2174052002 40.00 0.0130 0.000 0.150 0 0
21257 2174052101_ 2174053101 30.50 0.0130 0.000 0.412 0 0
21258 2174052101 2174051005 35.40 0.0130 0.000 0.000 0 0
21259 2174052102 2174052003 36.90 0.0130 0.000 0.000 0 0
21260 2174052103 2174052102 32.60 0.0130 0.000 0.000 0 0
21261 2174052201 2174051304 50.40 0.0130 0.000 0.000 0 0
21262 2174052202 2174051203 15.60 0.0130 0.000 0.050 0 0
21263 2174052203 2174052201 30.80 0.0130 0.000 0.000 0 0
21264 2174052204 2174052303 40.80 0.0130 0.000 0.000 0 0
21265 2174052205 2174052204 19.40 0.0130 0.000 0.000 0 0
21266 2174052301 2174052404 30.60 0.0130 0.000 0.000 0 0
21267 2174052302 2174052301 45.40 0.0130 0.000 0.000 0 0
21268 2174052303 2174052302 28.60 0.0130 0.000 0.000 0 0
21271 2174052403 2174052402 16.50 0.0130 0.000 0.060 0 0
21272 2174052404 2174052403 24.30 0.0130 0.000 0.060 0 0
21273 2174052405 2174052402 19.00 0.0130 0.000 0.000 0 0
21274 2174052406 2174052403 23.90 0.0130 0.000 0.000 0 0
21275 2174052407 2174052406 38.30 0.0130 0.000 0.000 0 0
21276 2174052408 2174052405 42.40 0.0130 0.000 0.000 0 0
21277 2174052501_ 2174052502_ 35.40 0.0130 0.000 0.000 0 0
21279 2174052502_ 2174053501_ 36.80 0.0130 0.000 0.000 0 0
21281 2174052503 2174052502 16.10 0.0130 0.000 0.000 0 0
21282 2174052504 2174052503 30.60 0.0130 0.000 0.000 0 0
21283 2174052505 2174052504 40.40 0.0130 0.000 0.000 0 0
21284 2174052601_ 2174053601 33.30 0.0130 0.000 0.000 0 0
21285 2174052601 2174052703 37.30 0.0130 0.000 0.000 0 0
21286 2174052602 2174052601 43.20 0.0130 0.000 0.000 0 0
21300 2174053001_ 2174053002_ 49.80 0.0130 0.000 0.625 0 0
21301 2174053001 2174052004 26.30 0.0130 0.000 0.000 0 0
21302 2174053002_ 2174054001 46.90 0.0130 0.000 0.000 0 0
21303 2174053002 2174053001 22.80 0.0130 0.000 0.000 0 0
21304 2174053101 2174053102 35.00 0.0130 0.000 0.000 0 0
21305 2174053102 2174053002_ 30.00 0.0130 0.000 0.000 0 0
21306 2174053201 2174053204 27.60 0.0130 0.000 0.000 0 0
21307 2174053202 2174053205 30.20 0.0130 0.000 0.000 0 0
21308 2174053203 2174053101 77.30 0.0130 0.000 0.112 0 0
21309 2174053204 2174053206 43.30 0.0130 0.000 0.000 0 0
21310 2174053205 2174053207 32.90 0.0130 0.000 0.000 0 0
21311 2174053206 2174053301_ 30.70 0.0130 0.000 0.000 0 0
21312 2174053207 2174053208 35.30 0.0130 0.000 0.000 0 0
21314 2174053301_ 2174054301 35.70 0.0130 0.000 0.000 0 0
21315 2174053301 2174052407 33.80 0.0130 0.000 0.000 0 0
21316 2174053302 2174053301 33.40 0.0130 0.000 0.000 0 0
21317 2174053303 2174053302 27.40 0.0130 0.000 0.150 0 0
21318 2174053304 2174053302 32.80 0.0130 0.000 0.192 0 0
21319 2174053401_ 2174053402_ 43.30 0.0130 0.000 0.000 0 0
21320 2174053401 2174052408 34.50 0.0130 0.000 0.000 0 0
21321 2174053402_ 2174053403_ 29.50 0.0130 0.000 0.000 0 0
21322 2174053402 2174053303 41.40 0.0130 0.000 0.000 0 0
21323 2174053403_ 2174053503 31.50 0.0130 0.000 0.000 0 0
21324 2174053403 2174053402 29.90 0.0130 0.000 0.000 0 0
21325 2174053501_ 2174053502 33.50 0.0130 0.000 0.000 0 0
21326 2174053501 2174052505 31.80 0.0130 0.000 0.000 0 0
21327 2174053502 2174053507 37.30 0.0130 0.000 0.000 0 0
21328 2174053503 2174053504 34.60 0.0130 0.000 0.000 0 0
21329 2174053504 2174053505 46.90 0.0130 0.000 0.000 0 0
21330 2174053505 2174053507 11.40 0.0130 0.000 0.000 0 0
21331 2174053506 2174053507 9.20 0.0130 0.000 0.000 0 0
21333 2174053601 2174053603 28.20 0.0130 0.000 0.000 0 0
21334 2174053602 2174053604 39.00 0.0130 0.000 0.000 0 0
21335 2174053603 2174053605 23.40 0.0130 0.000 0.000 0 0
21336 2174053604 2174053605 30.00 0.0130 0.000 0.000 0 0
21337 2174053605 2174053606 12.40 0.0130 0.000 0.000 0 0
21338 2174053606 2174053506 33.10 0.0130 0.000 0.000 0 0
12453 2171039212 2171039211 10.10 0.0130 0.000 0.000 0 0
12454 2171039213 2171039210 25.40 0.0130 0.000 0.000 0 0
12455 2171039214 2171039205 64.30 0.0130 0.020 0.000 0 0
12456 2171039214 2171039301 7.50 0.0130 0.000 0.042 0 0
12457 2171039215 2171039212 17.00 0.0130 0.000 0.000 0 0
12458 2171039216 2171039218 12.00 0.0130 0.000 0.000 0 0
12459 2171039217 2171039213 9.20 0.0130 0.000 0.000 0 0
12460 2171039218 2171039214 15.70 0.0130 0.000 1.420 0 0
12461 2171039301 2171039208 43.50 0.0130 0.000 0.000 0 0
12599 2171049801 2171049802 70.80 0.0130 0.000 0.000 0 0
12600 2171049802 2171049803 8.40 0.0130 0.000 0.278 0 0
12602 2171049804 2172040801 13.40 0.0130 0.000 0.000 0 0
14287 2172030101 2171039217 41.60 0.0130 0.000 1.086 0 0
14289 2172030103 2172030201 27.70 0.0130 0.000 0.000 0 0
14290 2172030104 2172030101 48.70 0.0130 0.000 0.000 0 0
14291 2172030105 2172030103 19.20 0.0130 0.000 0.000 0 0
14292 2172030106 2172030104 22.10 0.0130 0.000 0.000 0 0
14293 2172030107 2172030105 20.60 0.0130 0.000 0.000 0 0
14295 2172030109 2172030107 21.70 0.0130 0.000 0.000 0 0
14296 2172030201 2171039217 46.80 0.0130 0.000 0.000 0 0
14297 2172030301 2171039301 54.60 0.0130 0.000 0.000 0 0
14298 2172030302 2171039214 51.60 0.0130 0.000 0.020 0 0
14299 2172030303 2172030301 39.30 0.0130 0.000 0.000 0 0
14300 2172030304 2172030302 38.30 0.0130 0.000 0.000 0 0
14301 2172030305 2172030303 37.80 0.0130 0.000 0.000 0 0
14302 2172030306 2172030304 39.50 0.0130 0.000 0.000 0 0
14304 2172030402 2172030305 37.10 0.0130 0.000 0.000 0 0
14305 2172030403 2172030306 37.40 0.0130 0.000 0.000 0 0
14311 2172030505 2172030502 39.10 0.0130 0.000 0.000 0 0
14312 2172030506 2172030505 30.40 0.0130 0.000 0.000 0 0
14313 2172030601 2172030506 26.90 0.0130 0.000 0.000 0 0
14322 2172030903 2172040012 26.70 0.0130 0.000 0.000 0 0
14344 2172031301 2172031409 20.00 0.0130 0.000 0.000 0 0
14345 2172031302 2172031301 15.60 0.0130 0.000 0.000 0 0
14346 2172031401 2172030402 39.90 0.0130 0.000 0.000 0 0
14347 2172031401 2172031402 4.90 0.0130 0.434 0.005 0 0
14348 2172031402 2172030403 40.20 0.0130 0.000 0.000 0 0
14349 2172031403 2172031401 16.50 0.0130 0.000 0.000 0 0
14350 2172031404 2172031402 15.40 0.0130 0.040 0.000 0 0
14351 2172031405 2172031404 31.70 0.0130 0.000 1.690 0 0
14352 2172031406 2172031405 14.20 0.0130 0.000 0.000 0 0
14353 2172031407 2172031404 53.00 0.0130 0.000 0.000 0 0
14354 2172031408 2172031406 21.30 0.0130 0.000 0.000 0 0
14355 2172031409 2172031408 12.80 0.0130 0.000 0.000 0 0
14358 2172031503 2172031403 51.90 0.0130 0.000 0.000 0 0
14360 2172031505 2172031503 44.70 0.0130 0.000 0.000 0 0
14361 2172031506 2172031407 46.10 0.0130 0.000 0.000 0 0
14362 2172031601 2172031602 25.80 0.0130 0.000 0.000 0 0
14363 2172031602 2172030601 27.70 0.0130 0.000 0.000 0 0
14365 2172031604 2172031605 26.90 0.0130 0.000 0.000 0 0
14366 2172031605 2172032701 22.60 0.0130 0.000 0.000 0 0
14368 2172031801 2172031802 37.60 0.0130 0.000 0.000 0 0
14369 2172031802 2172031804 34.80 0.0130 0.000 0.000 0 0
14373 2172031901 2172031902 21.00 0.0130 0.000 0.000 0 0
14374 2172031902 2172031801 20.00 0.0130 0.000 0.000 0 0
14379 2172032301 2172031302 28.30 0.0130 0.000 0.000 0 0
14380 2172032302 2172032301 18.40 0.0130 0.000 0.000 0 0
14381 2172032303 2172032302 22.20 0.0130 0.000 0.000 0 0
14382 2172032501 2172031505 43.80 0.0130 0.000 0.000 0 0
14383 2172032502 2172031506 43.90 0.0130 0.000 0.000 0 0
14384 2172032503 2172032501 30.30 0.0130 0.000 0.000 0 0
14385 2172032504 2172032502 26.40 0.0130 0.000 0.000 0 0
14386 2172032601 2172032503 32.50 0.0130 0.000 0.000 0 0
14387 2172032602 2172032504 33.20 0.0130 0.000 0.000 0 0
14388 2172032603 2172032601 34.50 0.0130 0.000 0.000 0 0
14389 2172032604 2172032602 35.50 0.0130 0.000 0.000 0 0
14390 2172032605 2172032603 24.60 0.0130 0.000 0.000 0 0
14391 2172032606 2172032604 25.00 0.0130 0.000 0.000 0 0
14392 2172032701 2172032702 31.20 0.0130 0.000 0.000 0 0
14393 2172032702 2172032704 21.30 0.0130 0.000 0.000 0 0
14394 2172032703 2172032705 32.00 0.0130 0.000 0.200 0 0
14395 2172032704 2172032705 11.30 0.0130 0.000 1.037 0 0
14396 2172032705 2172032707 15.60 0.0130 0.000 0.000 0 0
14397 2172032706 2172032705 7.80 0.0130 0.000 0.737 0 0
14398 2172032707 2172032709 24.10 0.0130 0.000 0.000 0 0
14399 2172032708 2172032706 19.80 0.0130 0.000 0.000 0 0
14400 2172032709 2172033701 21.30 0.0130 0.000 0.000 0 0
14401 2172032710 2172032708 24.10 0.0130 0.000 0.000 0 0
14404 2172032803 2172032703 32.80 0.0130 0.000 0.000 0 0
14407 2172033601 2172032605 17.40 0.0130 0.000 0.000 0 0
14408 2172033602 2172032606 16.60 0.0130 0.000 0.000 0 0
14409 2172033603 2172033601 24.30 0.0130 0.000 0.000 0 0
14410 2172033603 2172033604 4.90 0.0130 0.478 0.043 0 0
14411 2172033604 2172033602 24.70 0.0130 0.000 0.000 0 0
14412 2172033701 2172033603 28.90 0.0130 0.000 1.178 0 0
14413 2172033702 2172033603 44.70 0.0130 0.000 0.000 0 0
14414 2172033703 2172033604 44.80 0.0130 0.000 0.000 0 0
14415 2172033704 2172033702 58.90 0.0130 0.000 0.000 0 0
14416 2172033705 2172033703 59.60 0.0130 0.000 0.000 0 0
14417 2172033801 2172032710 29.70 0.0130 0.000 0.000 0 0
14421 2172034701 2172033704 37.70 0.0130 0.000 0.000 0 0
14422 2172034702 2172033705 37.50 0.0130 0.000 0.000 0 0
14423 2172034801 2172034701 31.10 0.0130 0.000 0.000 0 0
14424 2172034802 2172034702 31.50 0.0130 0.000 0.000 0 0
14425 2172034803 2172034801 25.80 0.0130 0.000 0.000 0 0
14426 2172034804 2172034802 24.80 0.0130 0.000 0.032 0 0
14427 2172034805 2172034803 28.40 0.0130 0.000 0.000 0 0
14428 2172034806 2172034804 28.70 0.0130 0.000 0.000 0 0
14430 2172035701 2172034802 122.80 0.0130 0.000 0.160 0 0
14433 2172035901 2172034807 61.80 0.0130 0.000 0.000 0 0
14434 2172035902 2172035801 59.00 0.0130 0.000 0.000 0 0
14435 2172035903 2172035901 40.10 0.0130 0.000 0.000 0 0
14436 2172035904 2172035902 38.40 0.0130 0.000 0.000 0 0
14437 2172035905 2172035903 35.80 0.0130 0.000 0.000 0 0
14438 2172035906 2172035904 35.00 0.0130 0.000 0.000 0 0
14440 2172036601 2172035701 149.60 0.0130 0.000 0.000 0 0
14441 2172036602 2172036601 29.50 0.0130 0.000 1.050 0 0
14442 2172036603 2172036602 23.60 0.0130 0.000 0.000 0 0
14443 2172037001 2172037202 136.20 0.0130 0.000 0.000 0 0
14455 2172037202 2172037204 63.20 0.0130 0.000 0.000 0 0
14457 2172037204 2172038302 97.50 0.0130 0.000 0.000 0 0
14458 2172037501 2172036603 35.20 0.0130 0.000 0.000 0 0
14459 2172037502 2172037501 38.80 0.0130 0.000 0.000 0 0
14460 2172037503 2172037502 29.30 0.0130 0.000 0.000 0 0
14461 2172037701 2172038701 21.50 0.0130 0.000 0.000 0 0
14462 2172038101 2172037104 19.80 0.0130 0.000 0.000 0 0
14463 2172038102 2172038101 7.60 0.0130 0.000 0.000 0 0
14464 2172038103 2172038102 24.80 0.0130 0.000 0.000 0 0
14465 2172038104 2172038203 35.80 0.0130 0.000 0.000 0 0
14466 2172038201 2172038103 23.00 0.0130 0.000 0.000 0 0
14467 2172038201 2172037003 226.90 0.0130 0.000 0.000 0 0
14468 2172038202 2172038201 63.80 0.0130 0.000 0.000 0 0
14470 2172038203 2172038201 42.00 0.0130 0.000 0.079 0 0
14474 2172038302 2172038303 23.80 0.0130 0.000 0.000 0 0
14475 2172038303 2172038403 19.40 0.0130 0.000 0.000 0 0
14478 2172038306 2172038202 37.30 0.0130 0.000 0.000 0 0
14480 2172038308 2172038306 17.60 0.0130 0.000 0.000 0 0
14483 2172038403 2172038404 19.40 0.0130 0.000 0.000 0 0
14484 2172038404 2172038406 30.10 0.0130 0.000 0.000 0 0
14486 2172038406 2172038407 23.50 0.0130 0.000 0.000 0 0
14487 2172038407 2172038505 53.30 0.0130 0.000 0.000 0 0
14488 2172038501 2172037503 26.00 0.0130 0.000 0.000 0 0
14489 2172038502 2172038501 26.20 0.0130 0.000 0.000 0 0
14492 2172038503 2172038505 28.00 0.0130 0.000 0.259 0 0
14494 2172038506 2172038503 23.00 0.0130 0.000 0.000 0 0
14499 2172038512 2172038509 8.80 0.0130 0.000 0.000 0 0
14500 2172038513 2172038512 11.30 0.0130 0.000 0.000 0 0
14501 2172038514 2172038509 37.10 0.0130 0.000 0.300 0 0
14503 2172038602 2172038506 93.60 0.0130 0.000 0.000 0 0
14507 2172038701 2172038702 29.40 0.0130 0.000 0.000 0 0
14508 2172038702 2172038703 24.70 0.0130 0.000 0.000 0 0
14509 2172038703 2172038704 24.40 0.0130 0.000 0.000 0 0
14510 2172038704 2172038705 13.00 0.0130 0.000 0.000 0 0
14512 2172039101 2172039202 36.80 0.0130 0.000 0.000 0 0
14513 2172039102 2172039101 32.80 0.0130 0.000 0.000 0 0
14515 2172039104 2172039102 55.90 0.0130 0.000 0.000 0 0
14518 2172039203 2172039303 18.60 0.0130 0.000 0.000 0 0
14519 2172039204 2172039202 20.50 0.0130 0.000 0.186 0 0
14520 2172039205 2172039203 16.40 0.0130 0.000 0.000 0 0
14521 2172039206 2172039204 43.90 0.0130 0.000 0.000 0 0
14523 2172039302 2172038308 46.40 0.0130 0.000 0.000 0 0
14524 2172039303 2172039306 28.20 0.0130 0.000 0.000 0 0
14526 2172039305 2172039302 47.80 0.0130 0.000 0.000 0 0
14527 2172039306 2172039304 9.80 0.0130 0.000 0.000 0 0
14528 2172039307 2172039304 10.00 0.0130 0.000 0.000 0 0
14529 2172039308 2172039307 17.70 0.0130 0.000 0.000 0 0
14530 2172039309 2172039308 10.00 0.0130 0.000 0.000 0 0
14531 2172039310 2172039309 18.60 0.0130 0.000 0.000 0 0
14532 2172039311 2172039310 18.60 0.0130 0.000 0.000 0 0
14533 2172039401 2172039402 25.20 0.0130 0.000 0.000 0 0
14534 2172039402 2172039403 32.40 0.0130 0.000 0.000 0 0
14535 2172039403 2172039404 30.90 0.0130 0.000 0.000 0 0
14536 2172039404 2172039507 31.90 0.0130 0.000 0.000 0 0
14537 2172039405 2172039305 51.70 0.0130 0.000 0.000 0 0
14539 2172039407 2172039405 52.00 0.0130 0.000 0.000 0 0
14540 2172039501 2172038513 18.40 0.0130 0.000 0.000 0 0
14541 2172039502 2172039501 30.10 0.0130 0.000 0.000 0 0
14542 2172039503 2172039502 30.00 0.0130 0.000 0.000 0 0
14543 2172039504 2172038514 77.40 0.0130 0.000 0.000 0 0
14544 2172039506 2172039503 18.70 0.0130 0.000 0.000 0 0
14545 2172039507 2172039508 27.50 0.0130 0.000 0.000 0 0
14546 2172039508 2172039506 21.30 0.0130 0.000 0.000 0 0
14549 2172039703 2172039702 20.60 0.0130 0.000 0.000 0 0
14550 2172039704 2172039703 21.50 0.0130 0.000 0.000 0 0
14551 2172039705 2172039704 21.50 0.0130 0.000 0.000 0 0
14552 2172039706 2172039705 21.20 0.0130 0.000 0.000 0 0
14580 2172040701 2171049803 50.00 0.0130 0.000 0.000 0 0
14581 2172040702 2172040701 45.30 0.0130 0.000 0.000 0 0
14588 2172040802 2172040901 27.60 0.0130 0.000 0.000 0 0
14638 2172041709 2172041706 20.60 0.0130 0.000 0.000 0 0
14640 2172041802 2172040705 115.50 0.0130 0.000 0.000 0 0
14644 2172041902 2172041802 76.50 0.0130 0.000 0.150 0 0
14645 2172041903 2172041902 22.20 0.0130 0.000 0.000 0 0
14647 2172041905 2172041902 11.90 0.0130 0.000 0.000 0 0
14649 2172041907 2172041906 16.60 0.0130 0.000 0.000 0 0
14653 2172042301_ 2172042401_ 115.60 0.0130 0.000 0.000 0 0
14655 2172042302_ 2172043502 150.90 0.0130 0.000 0.000 0 0
14658 2172042401_ 2172042402 39.30 0.0130 0.000 0.000 0 0
14660 2172042402 2172042403 26.60 0.0130 0.000 0.150 0 0
14661 2172042403 2172043401_ 25.40 0.0130 0.000 0.000 0 0
14665 2172042604 2172042603 28.60 0.0130 0.000 0.000 0 0
14666 2172042605 2172042604 21.50 0.0130 0.000 0.000 0 0
14667 2172042701 2172042605 15.20 0.0130 0.000 0.000 0 0
14668 2172042702 2172043701 38.00 0.0130 0.000 0.000 0 0
14670 2172042802 2172041905 67.50 0.0130 0.000 0.000 0 0
14672 2172042901 2172041907 28.20 0.0130 0.000 0.000 0 0
14673 2172042902 2172042903 91.20 0.0130 0.000 0.000 0 0
14691 2172043301 2172043401 39.70 0.0130 0.000 0.000 0 0
14692 2172043401_ 2172043501 23.80 0.0130 0.000 0.000 0 0
14693 2172043401 2172044401 32.40 0.0130 0.000 0.000 0 0
14694 2172043501 2172043503 21.20 0.0130 0.000 0.000 0 0
14695 2172043502 2172043507 76.90 0.0130 0.000 0.000 0 0
14696 2172043503 2172043504 22.90 0.0130 0.000 0.000 0 0
14697 2172043504 2172043505 12.50 0.0130 0.000 0.000 0 0
14698 2172043505 2172043506 15.60 0.0130 0.000 0.000 0 0
14699 2172043506 2172043508 14.70 0.0130 0.000 0.000 0 0
14700 2172043507 2172043607 54.70 0.0130 0.000 0.000 0 0
14701 2172043508 2172043604 17.20 0.0130 0.000 0.000 0 0
14703 2172043602 2172043601 23.40 0.0130 0.000 0.000 0 0
14704 2172043603 2172043602 21.90 0.0130 0.000 0.000 0 0
14705 2172043604 2172043605 17.00 0.0130 0.000 0.000 0 0
14708 2172043607 2172043605 17.50 0.0130 0.000 0.000 0 0
14709 2172043701 2172043702 22.80 0.0130 0.000 0.000 0 0
14710 2172043702 2172043703 31.80 0.0130 0.000 0.000 0 0
14711 2172043703 2172043802 32.30 0.0130 0.000 0.000 0 0
14712 2172043704 2172043703 21.40 0.0130 0.000 0.000 0 0
14713 2172043705 2172043704 19.00 0.0130 0.000 0.000 0 0
14714 2172043706 2172043603 28.60 0.0130 0.000 0.000 0 0
14715 2172043801 2172043703 36.40 0.0130 0.000 0.295 0 0
14716 2172043802 2172043803 32.20 0.0130 0.000 0.000 0 0
14717 2172043803 2172043804 35.80 0.0130 0.000 0.000 0 0
14718 2172043804 2172043907 38.00 0.0130 0.000 0.000 0 0
14722 2172043904 2172043906 46.10 0.0130 0.000 0.000 0 0
14724 2172043906 2172043905 10.40 0.0130 0.000 0.000 0 0
14725 2172043907 2172043906 12.70 0.0130 0.000 0.000 0 0
14726 2172044002 2172045001 37.70 0.0130 0.000 0.000 0 0
14729 2172044103 2172044002 38.30 0.0130 0.000 0.000 0 0
14735 2172044401 2172044402 24.20 0.0130 0.000 0.000 0 0
14736 2172044402 2172044403 31.60 0.0130 0.000 0.000 0 0
14737 2172044403 2172044406 27.10 0.0130 0.000 0.000 0 0
14744 2172044601 2172043606 23.80 0.0130 0.000 0.326 0 0
14745 2172044602 2172044601 17.00 0.0130 0.000 0.000 0 0
14746 2172044603 2172043606 27.70 0.0130 0.000 0.000 0 0
14747 2172044604 2172044707 123.70 0.0130 0.000 0.000 0 0
14748 2172044605 2172044602 20.60 0.0130 0.000 0.000 0 0
14749 2172044606 2172044603 19.50 0.0130 0.000 0.150 0 0
14750 2172044607 2172044605 23.30 0.0130 0.000 0.000 0 0
14754 2172044701 2172044702 45.80 0.0130 0.000 0.000 0 0
14755 2172044702 2172044704 14.00 0.0130 0.000 0.000 0 0
14756 2172044703 2172044704 19.70 0.0130 0.000 0.005 0 0
14757 2172044704 2172044705 41.50 0.0130 0.000 0.000 0 0
14758 2172044705 2172044706 20.30 0.0130 0.000 0.295 0 0
14760 2172044707 2172045701 8.50 0.0130 0.000 0.150 0 0
14765 2172044902 2172043905 21.80 0.0130 0.000 0.700 0 0
14766 2172044903 2172044902 24.10 0.0130 0.000 0.000 0 0
14768 2172044905 2172043905 52.20 0.0130 0.000 0.000 0 0
14772 2172044909 2172044905 34.80 0.0130 0.000 0.000 0 0
14773 2172044910 2172044909 22.10 0.0130 0.000 0.000 0 0
14775 2172045001 2172045002 42.20 0.0130 0.000 0.000 0 0
14776 2172045002 2172045003 46.00 0.0130 0.000 0.000 0 0
14777 2172045003 2172046001 36.80 0.0130 0.000 0.523 0 0
14800 2172045702 2172044706 16.60 0.0130 0.000 0.000 0 0
14802 2172045704 2172045701 49.10 0.0130 0.000 0.000 0 0
14806 2172045801 2172044909 75.80 0.0130 0.000 0.300 0 0
14807 2172045802 2172045803 17.80 0.0130 0.000 0.300 0 0
14808 2172045803 2172045702 31.80 0.0130 0.000 0.000 0 0
14809 2172045804 2172045803 13.60 0.0130 0.000 0.000 0 0
14810 2172045805 2172045804 28.30 0.0130 0.000 0.000 0 0
14811 2172045806 2172045704 48.50 0.0130 0.000 0.000 0 0
14812 2172045807 2172045805 27.20 0.0130 0.000 0.000 0 0
14813 2172045808 2172045805 26.20 0.0130 0.000 0.000 0 0
14814 2172045809 2172045807 28.20 0.0130 0.000 0.050 0 0
14815 2172045810 2172045808 18.90 0.0130 0.000 0.000 0 0
14817 2172045902 2172044910 39.10 0.0130 0.000 0.100 0 0
14819 2172045904 2172045902 36.70 0.0130 0.000 0.000 0 0
14820 2172045905 2172045904 36.70 0.0130 0.000 0.195 0 0
14821 2172046001 2172046002 15.70 0.0130 0.000 0.250 0 0
14822 2172046002 2172035905 50.60 0.0130 0.000 0.000 0 0
14823 2172046002 2172046003 8.40 0.0130 0.118 0.027 0 0
14824 2172046003 2172035906 52.60 0.0130 0.000 0.000 0 0
14825 2172046004 2172046002 66.00 0.0130 0.000 0.000 0 0
14826 2172046005 2172046003 68.60 0.0130 0.000 0.000 0 0
14851 2172046801_ 2172045807 36.70 0.0130 0.000 0.050 0 0
14852 2172046801_ 2172045806 58.60 0.0130 0.000 0.000 0 0
14854 2172046802_ 2172045810 20.60 0.0130 0.000 0.295 0 0
14856 2172046803_ 2172046802_ 24.10 0.0130 0.000 0.000 0 0
14858 2172046804 2172046801_ 42.60 0.0130 0.000 0.000 0 0
14859 2172046805 2172046803_ 28.30 0.0130 0.000 0.000 0 0
14860 2172046806 2172046805 42.60 0.0130 0.000 0.000 0 0
14861 2172046901 2172045809 35.60 0.0130 0.000 0.000 0 0
14862 2172046902 2172045905 30.90 0.0130 0.000 0.000 0 0
14863 2172046903 2172046901 39.50 0.0130 0.000 0.000 0 0
14864 2172046904 2172046804 25.00 0.0130 0.000 0.000 0 0
14865 2172046905 2172046904 45.40 0.0130 0.000 0.150 0 0
14866 2172047001 2172046005 61.40 0.0130 0.000 0.000 0 0
14867 2172047101 2172046004 64.40 0.0130 0.000 0.000 0 0
14868 2172047102 2172047101 47.50 0.0130 0.000 0.000 0 0
14869 2172047103 2172047001 45.30 0.0130 0.000 0.000 0 0
14870 2172047104 2172047102 40.40 0.0130 0.000 0.000 0 0
14871 2172047104 2172047103 42.80 0.0130 0.000 0.000 0 0
14872 2172047202 2172047204 41.20 0.0130 0.000 0.000 0 0
14873 2172047204 2172048201 36.20 0.0130 0.000 0.000 0 0
14879 2172047403 2172048401 46.00 0.0130 0.000 0.000 0 0
14908 2172048101 2172048202 74.60 0.0130 0.000 0.000 0 0
14909 2172048201 2172048202 37.40 0.0130 0.000 0.149 0 0
14910 2172048202 2172047104 82.70 0.0130 0.000 0.000 0 0
14911 2172048203 2172048202 62.70 0.0130 0.000 0.000 0 0
14915 2172048304 2172048306 15.00 0.0130 0.000 0.650 0 0
14916 2172048305 2172048307 14.20 0.0130 0.000 0.000 0 0
14917 2172048306 2172048203 31.30 0.0130 0.000 0.000 0 0
14918 2172048307 2172049302 46.80 0.0130 0.000 0.000 0 0
14919 2172048401 2172048403 36.90 0.0130 0.000 0.000 0 0
14921 2172048403 2172048305 51.00 0.0130 0.000 0.000 0 0
14923 2172048405 2172048305 10.80 0.0130 0.000 0.350 0 0
14925 2172048407 2172048408 19.40 0.0130 0.000 0.150 0 0
14926 2172048408 2172048405 48.00 0.0130 0.000 0.000 0 0
14949 2172049003 2172048101 156.00 0.0130 0.000 0.000 0 0
14951 2172049301 2172048306 44.00 0.0130 0.000 0.000 0 0
14952 2172049302 2172049303 18.40 0.0130 0.000 0.000 0 0
14953 2172049303 2172049301 36.10 0.0130 0.000 0.000 0 0
14954 2172049304 2172049303 42.50 0.0130 0.000 0.000 0 0
14955 2172049401 2172048408 30.90 0.0130 0.000 0.050 0 0
14956 2172049402 2172049304 44.40 0.0130 0.000 0.000 0 0
14957 2172049403 2172049402 37.10 0.0130 0.000 0.000 0 0
14959 2172049502 2172049401 35.80 0.0130 0.000 0.000 0 0
14979 2172051102 2172051103 39.40 0.0130 0.000 0.000 0 0
14980 2172051103 2172052101 34.00 0.0130 0.000 0.000 0 0
14990 2172052101 2172052102 24.20 0.0130 0.000 0.050 0 0
14991 2172052102 2172052103 5.10 0.0130 0.000 0.000 0 0
14992 2172052103 2172052104 5.10 0.0130 0.000 0.000 0 0
14995 2172052106 2172052105 14.70 0.0130 0.000 0.330 0 0
14996 2172052107 2172052106 18.60 0.0130 0.000 0.000 0 0
14997 2172052108 2172052105 15.50 0.0130 0.000 0.000 0 0
14998 2172052109 2172052107 19.00 0.0130 0.000 0.000 0 0
14999 2172052110 2172052108 24.10 0.0130 0.000 0.000 0 0
15000 2172052111 2172052109 17.40 0.0130 0.000 0.000 0 0
15001 2172052112 2172052110 14.80 0.0130 0.000 0.000 0 0
15003 2172052114 2172052112 17.20 0.0130 0.000 0.000 0 0
15004 2172052201 2172052111 15.10 0.0130 0.000 0.000 0 0
15005 2172052202 2172052201 20.90 0.0130 0.000 0.000 0 0
15012 2172053201 2172052114 21.30 0.0130 0.000 0.000 0 0
15014 2172053203 2172053201 18.10 0.0130 0.000 0.000 0 0
15015 2172053204 2172053203 18.60 0.0130 0.000 0.000 0 0
15025 2172053503 2172054501 40.00 0.0130 0.000 0.000 0 0
15026 2172053602 2172053503 43.60 0.0130 0.000 0.000 0 0
15040 2172054407 2172054502 66.70 0.0130 0.000 0.000 0 0
15042 2172054409 2172054410 33.20 0.0130 0.000 0.000 0 0
15044 2172054410 2172054503 30.50 0.0130 0.000 0.000 0 0
15047 2172054501 2172054502 46.40 0.0130 0.000 0.022 0 0
15048 2172054502 2172054504 9.40 0.0130 0.022 0.000 0 0
15049 2172054502 2172054506 27.50 0.0130 0.000 0.000 0 0
15050 2172054503 2172054504 8.60 0.0130 0.000 0.000 0 0
15051 2172054504 2172054511 52.20 0.0130 0.000 0.000 0 0
15053 2172054506 2172054508 25.90 0.0130 0.000 0.000 0 0
15067 2172055101 2172055003 32.50 0.0130 0.000 0.000 0 0
15081 2172055701_ 2172055602 80.70 0.0130 0.000 0.000 0 0
15106 2172056101 2172055101 44.10 0.0130 0.000 0.145 0 0
15107 2172056102 2172056101 32.90 0.0130 0.000 0.000 0 0
15114 2172056302 2172056403 42.30 0.0130 0.000 0.000 0 0
15117 2172056305 2172057301 24.20 0.0130 0.000 0.000 0 0
15118 2172056306 2172056304 32.60 0.0130 0.000 0.000 0 0
15121 2172056403 2172056404 41.00 0.0130 0.000 0.000 0 0
15122 2172056404 2172056405 13.00 0.0130 0.000 0.203 0 0
15124 2172056406 2172056305 36.90 0.0130 0.000 0.000 0 0
15127 2172056501 2172056405 41.00 0.0130 0.000 0.000 0 0
15128 2172056502 2172056501 42.30 0.0130 0.000 0.000 0 0
15130 2172056503 2172056502 20.60 0.0130 0.000 0.225 0 0
15132 2172056601_ 2172056503 19.10 0.0130 0.000 0.000 0 0
15133 2172056601 2172056602 28.20 0.0130 0.000 0.165 0 0
15134 2172056602_ 2172056601_ 26.50 0.0130 0.000 0.000 0 0
15135 2172056602 2172056701 28.10 0.0130 0.000 0.000 0 0
15136 2172056603_ 2172056602_ 34.70 0.0130 0.000 0.000 0 0
15137 2172056603 2172056602 31.30 0.0130 0.000 0.067 0 0
15153 2172057001 2172057002 19.30 0.0130 0.000 0.000 0 0
15154 2172057002 2172057003 19.40 0.0130 0.000 0.000 0 0
15155 2172057003 2172057004 9.90 0.0130 0.000 0.000 0 0
15156 2172057004 2172057101 19.30 0.0130 0.000 0.295 0 0
15157 2172057005 2172057105 56.90 0.0130 0.000 0.000 0 0
15162 2172057105 2172057101 23.30 0.0130 0.000 0.000 0 0
15169 2172057301 2172057305 23.30 0.0130 0.000 0.000 0 0
15170 2172057302 2172056306 26.70 0.0130 0.000 0.000 0 0
15173 2172057305 2172057307 27.80 0.0130 0.000 0.295 0 0
15174 2172057306 2172057302 21.30 0.0130 0.000 0.000 0 0
15175 2172057307 2172057309 47.80 0.0130 0.000 0.300 0 0
15181 2172057402 2172057401 29.00 0.0130 0.000 0.000 0 0
15182 2172057403 2172057402 23.60 0.0130 0.000 0.000 0 0
15183 2172057404 2172057403 19.20 0.0130 0.000 0.000 0 0
15185 2172057406 2172057309 17.50 0.0130 0.000 0.000 0 0
15186 2172057501 2172057404 39.10 0.0130 0.000 0.000 0 0
15187 2172057502 2172057501 15.00 0.0130 0.000 0.200 0 0
15194 2172057601 2172056603 8.20 0.0130 0.000 0.000 0 0
15195 2172057602 2172057601_ 10.10 0.0130 0.000 0.000 0 0
15196 2172057603 2172057602 29.70 0.0130 0.000 0.000 0 0
15220 2172058102 2172057103 89.10 0.0130 0.000 0.000 0 0
15228 2172058401 2172057406 38.10 0.0130 0.000 0.000 0 0
15229 2172058402 2172058401 33.40 0.0130 0.000 0.000 0 0
15230 2172058403 2172058402 18.70 0.0130 0.000 0.000 0 0
15234 2172058501 2172058403 19.20 0.0130 0.000 0.000 0 0
15236 2172058502 2172058501 36.40 0.0130 0.000 0.000 0 0
15237 2172058503 2172058502 55.20 0.0130 0.000 0.000 0 0
15239 2172058602 2172058503 7.30 0.0130 0.000 0.150 0 0
15240 2172058603 2172058602 7.10 0.0130 0.000 0.000 0 0
15242 2172058604 2172058603 19.20 0.0130 0.000 0.000 0 0
15243 2172058605 2172058604 32.00 0.0130 0.000 0.000 0 0
15244 2172058606 2172058602 23.60 0.0130 0.000 0.150 0 0
15245 2172058607 2172058606 35.90 0.0130 0.000 0.000 0 0
15246 2172058608 2172058606 28.00 0.0130 0.000 0.000 0 0
15280 2172059302 2172059301 39.00 0.0130 0.000 0.000 0 0
15281 2172059303 2172059302 24.40 0.0130 0.000 0.000 0 0
15283 2172059402 2172059301 42.40 0.0130 0.000 0.000 0 0
15285 2172059404 2172059402 29.00 0.0130 0.000 0.000 0 0
15286 2172059405 2172059404 35.40 0.0130 0.000 0.000 0 0
15287 2172059406 2172059405 31.90 0.0130 0.000 0.000 0 0
15288 2172059501 2172059502 30.10 0.0130 0.000 0.000 0 0
15289 2172059502 2172059503 19.40 0.0130 0.000 0.195 0 0
15290 2172059503 2172059504 25.00 0.0130 0.000 0.000 0 0
15291 2172059504 2172059604 34.00 0.0130 0.000 0.100 0 0
15295 2172059604 2173050601 36.10 0.0130 0.000 0.000 0 0
15296 2172059703 2172059602 28.50 0.0130 0.000 0.000 0 0
2171049803_COLLECT 2171049803 2171049803_OUT 1.00 0.0100 0 0 0 0
2172038505_COLLECT 2172038505 2172038505_OUT 1.00 0.0100 0 0 0 0
2172038509_COLLECT 2172038509 2172038509_OUT 1.00 0.0100 0 0 0 0
2172039202_COLLECT 2172039202 2172039202_OUT 1.00 0.0100 0 0 0 0
2172039304_COLLECT 2172039304 2172039304_OUT 1.00 0.0100 0 0 0 0
2172043605_COLLECT 2172043605 2172043605_OUT 1.00 0.0100 0 0 0 0
2172043606_COLLECT 2172043606 2172043606_OUT 1.00 0.0100 0 0 0 0
2172043905_COLLECT 2172043905 2172043905_OUT 1.00 0.0100 0 0 0 0
2172044706_COLLECT 2172044706 2172044706_OUT 1.00 0.0100 0 0 0 0
2172045701_COLLECT 2172045701 2172045701_OUT 1.00 0.0100 0 0 0 0
2172052105_COLLECT 2172052105 2172052105_OUT 1.00 0.0100 0 0 0 0
2172056405_COLLECT 2172056405 2172056405_OUT 1.00 0.0100 0 0 0 0
2172057101_COLLECT 2172057101 2172057101_OUT 1.00 0.0100 0 0 0 0
2172057309_COLLECT 2172057309 2172057309_OUT 1.00 0.0100 0 0 0 0
2172059301_COLLECT 2172059301 2172059301_OUT 1.00 0.0100 0 0 0 0
2173031302_COLLECT 2173031302 2173031302_OUT 1.00 0.0100 0 0 0 0
2173031402_COLLECT 2173031402 2173031402_OUT 1.00 0.0100 0 0 0 0
2173033601_COLLECT 2173033601 2173033601_OUT 1.00 0.0100 0 0 0 0
2173035301_COLLECT 2173035301 2173035301_OUT 1.00 0.0100 0 0 0 0
2173047701_COLLECT 2173047701 2173047701_OUT 1.00 0.0100 0 0 0 0
2173048204_COLLECT 2173048204 2173048204_OUT 1.00 0.0100 0 0 0 0
2173059104_COLLECT 2173059104 2173059104_OUT 1.00 0.0100 0 0 0 0
2174041502_COLLECT 2174041502 2174041502_OUT 1.00 0.0100 0 0 0 0
2174041801_COLLECT 2174041801 2174041801_OUT 1.00 0.0100 0 0 0 0
2174042901_COLLECT 2174042901 2174042901_OUT 1.00 0.0100 0 0 0 0
2174052402_COLLECT 2174052402 2174052402_OUT 1.00 0.0100 0 0 0 0
2174053507_COLLECT 2174053507 2174053507_OUT 1.00 0.0100 0 0 0 0

[XSECTIONS]
;;Link Shape Geom1 Geom2 Geom3 Geom4 Barrels
17233 CIRCULAR 0.600 0 0 0 1
17239 CIRCULAR 0.450 0 0 0 1
17240 CIRCULAR 0.450 0 0 0 1
17241 CIRCULAR 0.450 0 0 0 1
17242 CIRCULAR 0.450 0 0 0 1
17248 RECT_CLOSED 0.450 0.450 0 0 1
17250 RECT_CLOSED 0.450 0.450 0 0 1
17252 CIRCULAR 0.600 0 0 0 1
17253 CIRCULAR 0.600 0 0 0 1
17254 CIRCULAR 0.600 0 0 0 1
17255 CIRCULAR 0.900 0 0 0 1
17256 CIRCULAR 0.900 0 0 0 1
17257 CIRCULAR 0.600 0 0 0 1
17259 CIRCULAR 0.900 0 0 0 1
17260 RECT_CLOSED 0.450 0.450 0 0 1
17263 CIRCULAR 0.600 0 0 0 1
17264 CIRCULAR 0.600 0 0 0 1
17265 CIRCULAR 0.600 0 0 0 1
17266 CIRCULAR 0.600 0 0 0 1
17267 CIRCULAR 0.900 0 0 0 1
17269 CIRCULAR 0.900 0 0 0 1
17270 CIRCULAR 0.600 0 0 0 1
17271 CIRCULAR 0.600 0 0 0 1
17272 CIRCULAR 0.600 0 0 0 1
17273 CIRCULAR 0.600 0 0 0 1
17274 CIRCULAR 0.600 0 0 0 1
17275 CIRCULAR 0.600 0 0 0 1
17276 CIRCULAR 0.600 0 0 0 1
17277 CIRCULAR 0.600 0 0 0 1
17278 CIRCULAR 0.600 0 0 0 1
17279 CIRCULAR 0.900 0 0 0 1
17280 CIRCULAR 0.900 0 0 0 1
17290 CIRCULAR 0.600 0 0 0 1
17291 CIRCULAR 0.900 0 0 0 1
17292 CIRCULAR 0.600 0 0 0 1
17293 CIRCULAR 0.600 0 0 0 1
17294 CIRCULAR 0.900 0 0 0 1
17295 RECT_CLOSED 0.450 0.450 0 0 1
17297 CIRCULAR 0.450 0 0 0 1
17298 CIRCULAR 0.600 0 0 0 1
17299 CIRCULAR 0.600 0 0 0 1
17300 RECT_CLOSED 0.450 0.450 0 0 1
17304 CIRCULAR 0.450 0 0 0 1
17307 CIRCULAR 0.900 0 0 0 1
17308 CIRCULAR 0.600 0 0 0 1
17309 CIRCULAR 0.600 0 0 0 1
17310 CIRCULAR 0.900 0 0 0 1
17311 CIRCULAR 0.900 0 0 0 1
17312 CIRCULAR 0.600 0 0 0 1
17313 CIRCULAR 0.600 0 0 0 1
17314 CIRCULAR 0.900 0 0 0 1
17315 CIRCULAR 0.900 0 0 0 1
17316 CIRCULAR 0.600 0 0 0 1
17317 CIRCULAR 0.600 0 0 0 1
17318 CIRCULAR 0.600 0 0 0 1
17319 CIRCULAR 0.600 0 0 0 1
17320 CIRCULAR 0.600 0 0 0 1
17321 CIRCULAR 0.600 0 0 0 1
17322 CIRCULAR 0.600 0 0 0 1
17323 CIRCULAR 0.900 0 0 0 1
17324 CIRCULAR 0.900 0 0 0 1
17325 CIRCULAR 0.900 0 0 0 1
17334 CIRCULAR 0.900 0 0 0 1
17335 CIRCULAR 0.900 0 0 0 1
17338 CIRCULAR 0.900 0 0 0 1
17339 CIRCULAR 0.600 0 0 0 1
17340 CIRCULAR 0.900 0 0 0 1
17341 CIRCULAR 0.600 0 0 0 1
17352 CIRCULAR 0.900 0 0 0 1
17372 CIRCULAR 0.900 0 0 0 1
17373 CIRCULAR 0.900 0 0 0 1
17375 CIRCULAR 0.900 0 0 0 1
17378 CIRCULAR 0.900 0 0 0 1
17379 CIRCULAR 0.600 0 0 0 1
17380 CIRCULAR 0.600 0 0 0 1
17381 CIRCULAR 0.600 0 0 0 1
17384 CIRCULAR 0.600 0 0 0 1
17386 CIRCULAR 0.600 0 0 0 1
17388 CIRCULAR 0.600 0 0 0 1
17390 RECT_CLOSED 0.450 0.450 0 0 1
17391 RECT_CLOSED 0.450 0.450 0 0 1
17392 CIRCULAR 0.600 0 0 0 1
17393 CIRCULAR 0.600 0 0 0 1
17409 CIRCULAR 0.900 0 0 0 1
17410 CIRCULAR 0.450 0 0 0 1
17411 CIRCULAR 0.450 0 0 0 1
17412 CIRCULAR 0.450 0 0 0 1
17413 CIRCULAR 0.450 0 0 0 1
17415 CIRCULAR 0.450 0 0 0 1
17416 CIRCULAR 0.450 0 0 0 1
17419 CIRCULAR 0.600 0 0 0 1
17420 CIRCULAR 0.600 0 0 0 1
17421 CIRCULAR 0.600 0 0 0 1
17429 CIRCULAR 0.450 0 0 0 1
17430 CIRCULAR 0.450 0 0 0 1
17431 CIRCULAR 0.450 0 0 0 1
17432 CIRCULAR 0.450 0 0 0 1
17433 CIRCULAR 0.450 0 0 0 1
17439 CIRCULAR 0.450 0 0 0 1
17440 CIRCULAR 0.600 0 0 0 1
17441 CIRCULAR 0.600 0 0 0 1
17442 CIRCULAR 0.450 0 0 0 1
17444 CIRCULAR 0.450 0 0 0 1
17445 CIRCULAR 0.450 0 0 0 1
17446 CIRCULAR 0.450 0 0 0 1
17447 CIRCULAR 0.450 0 0 0 1
17448 CIRCULAR 0.450 0 0 0 1
17449 CIRCULAR 0.450 0 0 0 1
17461 CIRCULAR 0.600 0 0 0 1
17463 CIRCULAR 0.600 0 0 0 1
17464 CIRCULAR 0.900 0 0 0 1
17477 CIRCULAR 0.600 0 0 0 1
17480 CIRCULAR 0.900 0 0 0 1
17481 CIRCULAR 0.600 0 0 0 1
17482 CIRCULAR 0.600 0 0 0 1
17483 RECT_CLOSED 0.450 0.450 0 0 1
17484 RECT_CLOSED 0.450 0.450 0 0 1
17500 RECT_CLOSED 0.450 0.450 0 0 1
17504 CIRCULAR 0.900 0 0 0 1
17505 CIRCULAR 0.900 0 0 0 1
17506 RECT_CLOSED 0.900 0.900 0 0 1
17507 RECT_CLOSED 0.900 0.900 0 0 1
17508 RECT_CLOSED 0.915 0.800 0 0 1
17523 CIRCULAR 0.900 0 0 0 1
17524 CIRCULAR 0.900 0 0 0 1
17525 CIRCULAR 0.450 0 0 0 1
17526 CIRCULAR 0.450 0 0 0 1
17527 CIRCULAR 0.900 0 0 0 1
17528 RECT_CLOSED 0.900 0.900 0 0 1
17529 RECT_CLOSED 0.900 0.900 0 0 1
17532 RECT_CLOSED 1.350 2.100 0 0 1
17533 RECT_CLOSED 2.790 4.000 0 0 1
17534 RECT_CLOSED 2.690 4.000 0 0 1
17536 RECT_CLOSED 2.710 4.000 0 0 1
17544 CIRCULAR 0.900 0 0 0 1
17547 CIRCULAR 0.450 0 0 0 1
17554 RECT_CLOSED 1.500 2.400 0 0 1
17555 RECT_CLOSED 1.350 2.100 0 0 1
17557 RECT_CLOSED 1.350 2.100 0 0 1
17561 CIRCULAR 0.600 0 0 0 1
17563 RECT_CLOSED 2.510 4.000 0 0 1
17564 RECT_CLOSED 2.543 4.000 0 0 1
17565 RECT_CLOSED 2.543 4.000 0 0 1
17566 RECT_CLOSED 2.543 4.000 0 0 1
17573 RECT_CLOSED 0.450 0.450 0 0 1
17575 RECT_CLOSED 0.450 0.450 0 0 1
17580 RECT_CLOSED 1.500 2.400 0 0 1
17582 RECT_CLOSED 1.500 2.400 0 0 1
17583 CIRCULAR 0.600 0 0 0 1
17584 RECT_CLOSED 1.500 2.400 0 0 1
17585 CIRCULAR 0.600 0 0 0 1
17586 CIRCULAR 0.600 0 0 0 1
17587 CIRCULAR 0.600 0 0 0 1
17588 CIRCULAR 0.600 0 0 0 1
17589 CIRCULAR 0.600 0 0 0 1
17590 CIRCULAR 0.600 0 0 0 1
17591 CIRCULAR 0.600 0 0 0 1
17592 CIRCULAR 0.600 0 0 0 1
17596 CIRCULAR 0.600 0 0 0 1
17598 CIRCULAR 0.600 0 0 0 1
17599 RECT_CLOSED 1.200 1.200 0 0 1
17600 RECT_CLOSED 2.523 4.000 0 0 1
17601 RECT_CLOSED 2.491 4.000 0 0 1
17604 RECT_CLOSED 0.450 0.450 0 0 1
17605 RECT_CLOSED 0.450 0.450 0 0 1
17606 RECT_CLOSED 0.450 0.450 0 0 1
17609 RECT_CLOSED 1.050 1.800 0 0 1
17611 RECT_CLOSED 0.600 0.600 0 0 1
17612 RECT_CLOSED 1.500 2.400 0 0 1
17613 RECT_CLOSED 1.500 2.400 0 0 1
17615 CIRCULAR 0.600 0 0 0 1
17616 RECT_CLOSED 1.500 2.400 0 0 1
17618 CIRCULAR 0.600 0 0 0 1
17619 CIRCULAR 0.600 0 0 0 1
17620 RECT_CLOSED 0.450 0.450 0 0 1
17621 CIRCULAR 0.600 0 0 0 1
17622 CIRCULAR 0.600 0 0 0 1
17623 CIRCULAR 0.600 0 0 0 1
17624 CIRCULAR 0.600 0 0 0 1
17625 CIRCULAR 0.600 0 0 0 1
17626 RECT_CLOSED 0.450 0.450 0 0 1
17627 CIRCULAR 0.600 0 0 0 1
17628 CIRCULAR 0.600 0 0 0 1
17630 CIRCULAR 0.600 0 0 0 1
17632 CIRCULAR 0.600 0 0 0 1
17633 RECT_CLOSED 1.200 1.500 0 0 1
17634 CIRCULAR 0.600 0 0 0 1
17635 RECT_CLOSED 1.200 1.500 0 0 1
17636 RECT_CLOSED 1.200 1.200 0 0 1
17637 RECT_CLOSED 1.200 1.200 0 0 1
17644 RECT_CLOSED 1.050 1.800 0 0 1
17645 RECT_CLOSED 1.050 1.800 0 0 1
17646 RECT_CLOSED 1.050 1.800 0 0 1
17647 RECT_CLOSED 1.050 1.800 0 0 1
17648 RECT_CLOSED 1.050 1.800 0 0 1
17652 RECT_CLOSED 1.050 1.800 0 0 1
17653 RECT_CLOSED 1.050 1.800 0 0 1
17655 CIRCULAR 0.600 0 0 0 1
17656 RECT_CLOSED 1.050 1.800 0 0 1
17658 CIRCULAR 0.600 0 0 0 1
17661 CIRCULAR 0.600 0 0 0 1
17662 CIRCULAR 0.600 0 0 0 1
17663 CIRCULAR 0.600 0 0 0 1
17664 CIRCULAR 0.600 0 0 0 1
17665 CIRCULAR 0.600 0 0 0 1
17666 CIRCULAR 0.600 0 0 0 1
17667 CIRCULAR 0.600 0 0 0 1
17669 CIRCULAR 0.600 0 0 0 1
17670 CIRCULAR 0.600 0 0 0 1
17671 RECT_CLOSED 1.200 1.500 0 0 1
17672 RECT_CLOSED 1.200 1.500 0 0 1
17673 RECT_CLOSED 1.200 1.500 0 0 1
17675 CIRCULAR 0.600 0 0 0 1
17676 CIRCULAR 0.600 0 0 0 1
17679 CIRCULAR 0.600 0 0 0 1
17680 CIRCULAR 0.600 0 0 0 1
17682 CIRCULAR 1.800 0 0 0 1
17689 CIRCULAR 0.600 0 0 0 1
17691 CIRCULAR 0.600 0 0 0 1
17694 CIRCULAR 0.600 0 0 0 1
17695 CIRCULAR 0.600 0 0 0 1
17696 RECT_CLOSED 1.200 1.500 0 0 1
17697 CIRCULAR 0.600 0 0 0 1
17698 CIRCULAR 0.600 0 0 0 1
17699 CIRCULAR 0.600 0 0 0 1
17700 CIRCULAR 0.600 0 0 0 1
17701 RECT_CLOSED 1.200 1.500 0 0 1
17703 RECT_CLOSED 1.200 1.500 0 0 1
17705 CIRCULAR 0.600 0 0 0 1
17706 CIRCULAR 0.600 0 0 0 1
17707 RECT_CLOSED 1.200 1.200 0 0 1
17709 CIRCULAR 0.900 0 0 0 1
17710 CIRCULAR 0.600 0 0 0 1
17711 CIRCULAR 0.600 0 0 0 1
17712 CIRCULAR 0.600 0 0 0 1
17713 CIRCULAR 0.600 0 0 0 1
17720 RECT_CLOSED 0.450 0.450 0 0 1
17722 RECT_CLOSED 0.450 0.450 0 0 1
17726 CIRCULAR 1.800 0 0 0 1
17727 CIRCULAR 1.800 0 0 0 1
17731 CIRCULAR 0.600 0 0 0 1
17732 CIRCULAR 0.900 0 0 0 1
17733 CIRCULAR 0.600 0 0 0 1
17734 CIRCULAR 0.600 0 0 0 1
17735 CIRCULAR 0.600 0 0 0 1
17736 CIRCULAR 0.600 0 0 0 1
17737 CIRCULAR 0.600 0 0 0 1
17738 CIRCULAR 0.600 0 0 0 1
17739 CIRCULAR 0.600 0 0 0 1
17740 CIRCULAR 0.600 0 0 0 1
17745 CIRCULAR 0.600 0 0 0 1
17746 CIRCULAR 0.600 0 0 0 1
17750 CIRCULAR 0.900 0 0 0 1
17753 CIRCULAR 0.600 0 0 0 1
17754 CIRCULAR 0.600 0 0 0 1
17755 CIRCULAR 0.900 0 0 0 1
17756 CIRCULAR 0.600 0 0 0 1
17757 CIRCULAR 0.900 0 0 0 1
17758 CIRCULAR 0.900 0 0 0 1
17759 CIRCULAR 0.600 0 0 0 1
17760 CIRCULAR 0.600 0 0 0 1
17761 CIRCULAR 0.600 0 0 0 1
17762 CIRCULAR 0.900 0 0 0 1
17764 CIRCULAR 0.600 0 0 0 1
17765 CIRCULAR 0.600 0 0 0 1
17766 CIRCULAR 0.600 0 0 0 1
17767 CIRCULAR 0.600 0 0 0 1
17768 CIRCULAR 0.600 0 0 0 1
17769 CIRCULAR 0.600 0 0 0 1
17770 CIRCULAR 0.600 0 0 0 1
17771 CIRCULAR 0.600 0 0 0 1
17773 CIRCULAR 0.600 0 0 0 1
17774 CIRCULAR 0.600 0 0 0 1
17775 RECT_CLOSED 1.800 1.500 0 0 1
17777 CIRCULAR 0.600 0 0 0 1
17778 CIRCULAR 0.600 0 0 0 1
17779 CIRCULAR 0.600 0 0 0 1
17780 CIRCULAR 0.600 0 0 0 1
17781 CIRCULAR 0.600 0 0 0 1
17782 CIRCULAR 0.600 0 0 0 1
17783 CIRCULAR 0.600 0 0 0 1
17784 CIRCULAR 0.600 0 0 0 1
17785 CIRCULAR 0.600 0 0 0 1
17786 CIRCULAR 0.600 0 0 0 1
17787 CIRCULAR 0.600 0 0 0 1
17788 CIRCULAR 0.600 0 0 0 1
17790 CIRCULAR 0.600 0 0 0 1
17791 RECT_CLOSED 0.750 0.750 0 0 1
17797 CIRCULAR 0.600 0 0 0 1
17799 CIRCULAR 0.600 0 0 0 1
17802 CIRCULAR 0.600 0 0 0 1
17805 CIRCULAR 0.600 0 0 0 1
17807 CIRCULAR 0.600 0 0 0 1
17808 CIRCULAR 0.900 0 0 0 1
17809 CIRCULAR 0.600 0 0 0 1
17810 CIRCULAR 0.750 0 0 0 1
17811 CIRCULAR 0.600 0 0 0 1
17812 CIRCULAR 0.600 0 0 0 1
17813 CIRCULAR 0.750 0 0 0 1
17814 CIRCULAR 0.600 0 0 0 1
17815 CIRCULAR 0.750 0 0 0 1
17816 CIRCULAR 0.600 0 0 0 1
17817 CIRCULAR 0.600 0 0 0 1
17818 CIRCULAR 0.600 0 0 0 1
17819 RECT_CLOSED 1.800 1.500 0 0 1
17820 RECT_CLOSED 1.800 1.500 0 0 1
17821 RECT_CLOSED 1.800 1.500 0 0 1
17822 RECT_CLOSED 1.800 1.500 0 0 1
17824 CIRCULAR 0.750 0 0 0 1
17825 RECT_CLOSED 0.450 0.450 0 0 1
17826 RECT_CLOSED 0.450 0.450 0 0 1
17830 CIRCULAR 0.750 0 0 0 1
17831 CIRCULAR 0.750 0 0 0 1
17832 CIRCULAR 0.750 0 0 0 1
17833 RECT_CLOSED 0.450 0.450 0 0 1
17834 CIRCULAR 0.750 0 0 0 1
17835 RECT_CLOSED 0.450 0.450 0 0 1
17836 RECT_CLOSED 0.450 0.450 0 0 1
17837 CIRCULAR 0.900 0 0 0 1
17838 CIRCULAR 0.900 0 0 0 1
17839 CIRCULAR 0.900 0 0 0 1
17840 CIRCULAR 0.900 0 0 0 1
17841 CIRCULAR 0.600 0 0 0 1
17842 CIRCULAR 0.600 0 0 0 1
17843 CIRCULAR 0.600 0 0 0 1
17844 CIRCULAR 0.600 0 0 0 1
17845 CIRCULAR 0.600 0 0 0 1
17846 CIRCULAR 0.600 0 0 0 1
17850 CIRCULAR 0.600 0 0 0 1
17851 CIRCULAR 0.600 0 0 0 1
17852 CIRCULAR 0.600 0 0 0 1
17853 CIRCULAR 0.750 0 0 0 1
17854 CIRCULAR 0.750 0 0 0 1
17855 CIRCULAR 0.600 0 0 0 1
17856 RECT_CLOSED 1.800 1.500 0 0 1
17857 CIRCULAR 0.600 0 0 0 1
17858 RECT_CLOSED 1.800 1.500 0 0 1
17859 CIRCULAR 0.750 0 0 0 1
17860 CIRCULAR 0.600 0 0 0 1
17861 CIRCULAR 0.600 0 0 0 1
17862 RECT_CLOSED 1.800 1.500 0 0 1
17864 CIRCULAR 0.750 0 0 0 1
17865 CIRCULAR 0.750 0 0 0 1
17866 CIRCULAR 0.750 0 0 0 1
17867 CIRCULAR 0.600 0 0 0 1
17868 CIRCULAR 0.750 0 0 0 1
17869 CIRCULAR 0.600 0 0 0 1
17878 CIRCULAR 0.450 0 0 0 1
17879 CIRCULAR 0.600 0 0 0 1
17880 CIRCULAR 0.600 0 0 0 1
17881 CIRCULAR 0.600 0 0 0 1
17882 RECT_CLOSED 0.600 0.450 0 0 1
17889 CIRCULAR 0.600 0 0 0 1
17890 CIRCULAR 0.800 0 0 0 1
17891 CIRCULAR 0.800 0 0 0 1
17892 CIRCULAR 0.800 0 0 0 1
17914 CIRCULAR 0.800 0 0 0 1
17915 CIRCULAR 0.800 0 0 0 1
17937 RECT_CLOSED 2.491 4.000 0 0 1
17938 RECT_CLOSED 2.491 4.000 0 0 1
17939 RECT_CLOSED 2.600 6.000 0 0 1
17941 RECT_CLOSED 0.450 0.450 0 0 1
17942 RECT_CLOSED 0.450 0.450 0 0 1
17943 RECT_CLOSED 0.600 0.600 0 0 1
17945 RECT_CLOSED 0.600 0.600 0 0 1
17947 RECT_CLOSED 0.750 0.800 0 0 1
17948 RECT_CLOSED 0.750 0.800 0 0 1
17949 RECT_CLOSED 0.750 0.800 0 0 1
17973 RECT_CLOSED 2.587 6.000 0 0 1
17974 RECT_CLOSED 2.560 6.000 0 0 1
17975 RECT_CLOSED 2.560 6.000 0 0 1
17976 RECT_CLOSED 2.560 6.000 0 0 1
17977 RECT_CLOSED 2.550 6.000 0 0 1
17983 CIRCULAR 0.800 0 0 0 1
17985 RECT_CLOSED 0.750 0.800 0 0 1
17986 RECT_CLOSED 1.572 3.000 0 0 1
17987 CIRCULAR 0.450 0 0 0 1
17988 RECT_CLOSED 0.750 0.800 0 0 1
17989 RECT_CLOSED 0.750 0.800 0 0 1
17990 CIRCULAR 0.450 0 0 0 1
17991 CIRCULAR 0.750 0 0 0 1
17993 RECT_CLOSED 0.750 0.800 0 0 1
17994 CIRCULAR 0.450 0 0 0 1
17995 CIRCULAR 0.450 0 0 0 1
17998 CIRCULAR 0.450 0 0 0 1
17999 CIRCULAR 0.450 0 0 0 1
18000 CIRCULAR 0.450 0 0 0 1
18001 RECT_CLOSED 0.900 0.910 0 0 1
18002 CIRCULAR 0.750 0 0 0 1
18003 RECT_CLOSED 0.900 0.910 0 0 1
18004 CIRCULAR 0.750 0 0 0 1
18005 CIRCULAR 0.300 0 0 0 1
18006 CIRCULAR 0.300 0 0 0 1
18007 RECT_CLOSED 0.900 0.910 0 0 1
18008 RECT_CLOSED 0.900 0.910 0 0 1
18009 RECT_CLOSED 0.900 0.910 0 0 1
18010 RECT_CLOSED 0.800 1.500 0 0 1
18026 RECT_CLOSED 2.550 6.000 0 0 1
18029 RECT_CLOSED 1.590 2.000 0 0 1
18031 RECT_CLOSED 2.550 6.000 0 0 1
18032 RECT_CLOSED 2.550 6.000 0 0 1
18033 RECT_CLOSED 2.200 6.000 0 0 1
18034 RECT_CLOSED 2.225 6.000 0 0 1
18035 RECT_CLOSED 2.507 6.000 0 0 1
18036 RECT_CLOSED 2.710 6.000 0 0 1
18037 RECT_CLOSED 2.614 6.000 0 0 1
18038 CIRCULAR 1.500 0 0 0 1
18039 CIRCULAR 1.500 0 0 0 1
18042 CIRCULAR 1.500 0 0 0 1
18043 CIRCULAR 1.500 0 0 0 1
18044 CIRCULAR 1.500 0 0 0 1
18051 CIRCULAR 1.800 0 0 0 1
18056 RECT_CLOSED 1.800 1.500 0 0 1
18070 CIRCULAR 0.600 0 0 0 1
18072 CIRCULAR 0.600 0 0 0 1
18074 CIRCULAR 0.750 0 0 0 1
18076 CIRCULAR 0.750 0 0 0 1
18077 CIRCULAR 0.600 0 0 0 1
18078 CIRCULAR 0.600 0 0 0 1
18079 CIRCULAR 0.600 0 0 0 1
18082 CIRCULAR 0.600 0 0 0 1
18085 CIRCULAR 0.600 0 0 0 1
18087 CIRCULAR 0.600 0 0 0 1
18088 CIRCULAR 0.600 0 0 0 1
18089 CIRCULAR 0.300 0 0 0 1
18091 CIRCULAR 0.300 0 0 0 1
18093 CIRCULAR 0.600 0 0 0 1
18094 CIRCULAR 0.600 0 0 0 1
18096 CIRCULAR 0.600 0 0 0 1
18097 CIRCULAR 0.300 0 0 0 1
18098 CIRCULAR 0.300 0 0 0 1
18101 CIRCULAR 0.600 0 0 0 1
18102 CIRCULAR 0.600 0 0 0 1
18103 CIRCULAR 0.600 0 0 0 1
18104 CIRCULAR 0.600 0 0 0 1
18105 CIRCULAR 0.600 0 0 0 1
18106 CIRCULAR 0.600 0 0 0 1
18107 CIRCULAR 0.600 0 0 0 1
18110 CIRCULAR 0.600 0 0 0 1
18112 CIRCULAR 0.600 0 0 0 1
18113 CIRCULAR 0.600 0 0 0 1
18114 CIRCULAR 0.600 0 0 0 1
18116 CIRCULAR 0.600 0 0 0 1
18117 CIRCULAR 0.600 0 0 0 1
18119 CIRCULAR 0.300 0 0 0 1
18120 CIRCULAR 0.300 0 0 0 1
18121 CIRCULAR 0.600 0 0 0 1
18122 CIRCULAR 0.600 0 0 0 1
18123 CIRCULAR 0.600 0 0 0 1
18124 CIRCULAR 0.600 0 0 0 1
18125 CIRCULAR 0.600 0 0 0 1
18126 CIRCULAR 0.600 0 0 0 1
18127 CIRCULAR 0.450 0 0 0 1
18128 CIRCULAR 0.450 0 0 0 1
18129 CIRCULAR 0.450 0 0 0 1
18130 CIRCULAR 0.450 0 0 0 1
18131 CIRCULAR 0.450 0 0 0 1
18132 CIRCULAR 0.600 0 0 0 1
20561 CIRCULAR 0.600 0 0 0 1
20566 CIRCULAR 0.750 0 0 0 1
20573 CIRCULAR 0.750 0 0 0 1
20580 CIRCULAR 0.750 0 0 0 1
20592 CIRCULAR 0.900 0 0 0 1
20595 CIRCULAR 0.900 0 0 0 1
20603 CIRCULAR 1.600 0 0 0 1
20604 CIRCULAR 1.600 0 0 0 1
20605 CIRCULAR 1.600 0 0 0 1
20608 CIRCULAR 1.600 0 0 0 1
20609 CIRCULAR 1.600 0 0 0 1
20612 CIRCULAR 1.600 0 0 0 1
20614 CIRCULAR 1.600 0 0 0 1
20615 CIRCULAR 1.600 0 0 0 1
20617 CIRCULAR 0.900 0 0 0 1
20628 CIRCULAR 1.600 0 0 0 1
20629 CIRCULAR 1.600 0 0 0 1
20630 CIRCULAR 1.600 0 0 0 1
20631 CIRCULAR 1.600 0 0 0 1
20632 CIRCULAR 1.600 0 0 0 1
20633 CIRCULAR 1.600 0 0 0 1
20634 CIRCULAR 1.600 0 0 0 1
20635 CIRCULAR 1.600 0 0 0 1
20636 CIRCULAR 1.600 0 0 0 1
20638 CIRCULAR 1.600 0 0 0 1
20640 CIRCULAR 1.600 0 0 0 1
20642 CIRCULAR 1.600 0 0 0 1
20643 CIRCULAR 1.600 0 0 0 1
20644 CIRCULAR 1.600 0 0 0 1
20767 RECT_CLOSED 0.450 0.450 0 0 1
20776 CIRCULAR 0.750 0 0 0 1
20777 CIRCULAR 0.675 0 0 0 1
20778 CIRCULAR 0.675 0 0 0 1
20779 CIRCULAR 0.750 0 0 0 1
20780 CIRCULAR 0.600 0 0 0 1
20781 CIRCULAR 0.600 0 0 0 1
20782 CIRCULAR 0.600 0 0 0 1
20783 CIRCULAR 0.600 0 0 0 1
20784 CIRCULAR 0.600 0 0 0 1
20785 CIRCULAR 0.600 0 0 0 1
20786 CIRCULAR 0.900 0 0 0 1
20787 RECT_CLOSED 0.450 0.450 0 0 1
20788 RECT_CLOSED 0.450 0.450 0 0 1
20789 CIRCULAR 0.600 0 0 0 1
20790 CIRCULAR 0.900 0 0 0 1
20791 CIRCULAR 0.600 0 0 0 1
20792 CIRCULAR 0.600 0 0 0 1
20793 CIRCULAR 0.900 0 0 0 1
20795 CIRCULAR 0.600 0 0 0 1
20798 CIRCULAR 0.600 0 0 0 1
20799 CIRCULAR 0.600 0 0 0 1
20800 CIRCULAR 0.600 0 0 0 1
20801 CIRCULAR 0.600 0 0 0 1
20802 CIRCULAR 0.600 0 0 0 1
20803 CIRCULAR 0.600 0 0 0 1
20804 CIRCULAR 0.600 0 0 0 1
20805 CIRCULAR 0.600 0 0 0 1
20806 CIRCULAR 0.600 0 0 0 1
20810 CIRCULAR 0.600 0 0 0 1
20811 CIRCULAR 0.600 0 0 0 1
20813 CIRCULAR 0.600 0 0 0 1
20814 CIRCULAR 0.900 0 0 0 1
20815 CIRCULAR 0.900 0 0 0 1
20816 CIRCULAR 0.600 0 0 0 1
20817 CIRCULAR 0.900 0 0 0 1
20822 CIRCULAR 0.600 0 0 0 1
20823 CIRCULAR 0.600 0 0 0 1
20824 RECT_CLOSED 0.450 0.450 0 0 1
20825 RECT_CLOSED 0.450 0.450 0 0 1
20826 RECT_CLOSED 0.450 0.450 0 0 1
20827 CIRCULAR 0.600 0 0 0 1
20828 CIRCULAR 0.600 0 0 0 1
20829 CIRCULAR 0.600 0 0 0 1
20830 CIRCULAR 0.450 0 0 0 1
20831 CIRCULAR 0.600 0 0 0 1
20832 RECT_CLOSED 0.450 0.600 0 0 1
20833 CIRCULAR 0.450 0 0 0 1
20834 RECT_CLOSED 0.450 0.450 0 0 1
20835 RECT_CLOSED 0.450 0.450 0 0 1
20836 RECT_CLOSED 0.450 0.450 0 0 1
20837 CIRCULAR 0.900 0 0 0 1
20838 RECT_CLOSED 0.450 0.450 0 0 1
20839 CIRCULAR 0.900 0 0 0 1
20840 CIRCULAR 0.900 0 0 0 1
20841 CIRCULAR 0.600 0 0 0 1
20842 CIRCULAR 0.900 0 0 0 1
20843 CIRCULAR 0.600 0 0 0 1
20844 CIRCULAR 0.600 0 0 0 1
20845 CIRCULAR 0.600 0 0 0 1
20847 CIRCULAR 0.600 0 0 0 1
20848 CIRCULAR 0.600 0 0 0 1
20849 CIRCULAR 0.600 0 0 0 1
20850 CIRCULAR 0.600 0 0 0 1
20851 CIRCULAR 0.600 0 0 0 1
20855 CIRCULAR 0.900 0 0 0 1
20856 CIRCULAR 0.600 0 0 0 1
20860 CIRCULAR 0.900 0 0 0 1
20863 CIRCULAR 0.600 0 0 0 1
20864 CIRCULAR 0.600 0 0 0 1
20865 CIRCULAR 0.900 0 0 0 1
20870 RECT_CLOSED 0.450 0.450 0 0 1
20871 RECT_CLOSED 0.450 0.450 0 0 1
20872 RECT_CLOSED 0.450 0.450 0 0 1
20873 CIRCULAR 0.900 0 0 0 1
20874 CIRCULAR 0.900 0 0 0 1
20875 CIRCULAR 0.900 0 0 0 1
20876 CIRCULAR 0.900 0 0 0 1
20877 CIRCULAR 0.600 0 0 0 1
20878 CIRCULAR 0.600 0 0 0 1
20879 CIRCULAR 0.600 0 0 0 1
20880 CIRCULAR 0.600 0 0 0 1
20881 CIRCULAR 0.600 0 0 0 1
20882 CIRCULAR 0.600 0 0 0 1
20886 CIRCULAR 0.600 0 0 0 1
20888 CIRCULAR 0.600 0 0 0 1
20892 CIRCULAR 0.600 0 0 0 1
20897 CIRCULAR 0.750 0 0 0 1
20898 CIRCULAR 0.600 0 0 0 1
20899 CIRCULAR 0.600 0 0 0 1
20900 RECT_CLOSED 0.450 0.450 0 0 1
20901 CIRCULAR 0.750 0 0 0 1
20902 CIRCULAR 0.750 0 0 0 1
20912 CIRCULAR 0.600 0 0 0 1
20914 CIRCULAR 0.600 0 0 0 1
20915 CIRCULAR 0.600 0 0 0 1
20916 CIRCULAR 0.600 0 0 0 1
20917 CIRCULAR 0.600 0 0 0 1
20918 CIRCULAR 0.600 0 0 0 1
20919 CIRCULAR 0.600 0 0 0 1
20920 CIRCULAR 0.600 0 0 0 1
20921 CIRCULAR 0.600 0 0 0 1
20922 CIRCULAR 0.600 0 0 0 1
20923 CIRCULAR 0.600 0 0 0 1
20924 CIRCULAR 0.600 0 0 0 1
20925 CIRCULAR 0.600 0 0 0 1
20926 CIRCULAR 0.750 0 0 0 1
20927 CIRCULAR 0.600 0 0 0 1
20928 CIRCULAR 0.750 0 0 0 1
20929 CIRCULAR 0.750 0 0 0 1
20930 CIRCULAR 0.750 0 0 0 1
21139 CIRCULAR 0.600 0 0 0 1
21140 CIRCULAR 0.600 0 0 0 1
21141 CIRCULAR 0.600 0 0 0 1
21142 CIRCULAR 0.600 0 0 0 1
21143 CIRCULAR 0.600 0 0 0 1
21144 CIRCULAR 0.600 0 0 0 1
21145 CIRCULAR 0.600 0 0 0 1
21146 CIRCULAR 0.600 0 0 0 1
21147 CIRCULAR 0.450 0 0 0 1
21148 CIRCULAR 0.450 0 0 0 1
21150 CIRCULAR 0.600 0 0 0 1
21151 CIRCULAR 0.600 0 0 0 1
21152 CIRCULAR 0.600 0 0 0 1
21153 CIRCULAR 0.600 0 0 0 1
21157 RECT_CLOSED 0.450 0.450 0 0 1
21158 CIRCULAR 0.600 0 0 0 1
21159 CIRCULAR 0.600 0 0 0 1
21163 CIRCULAR 0.600 0 0 0 1
21165 CIRCULAR 0.600 0 0 0 1
21166 CIRCULAR 0.600 0 0 0 1
21167 CIRCULAR 0.600 0 0 0 1
21168 CIRCULAR 0.600 0 0 0 1
21169 CIRCULAR 0.600 0 0 0 1
21170 CIRCULAR 0.600 0 0 0 1
21171 CIRCULAR 0.600 0 0 0 1
21172 CIRCULAR 0.600 0 0 0 1
21173 CIRCULAR 0.600 0 0 0 1
21174 CIRCULAR 0.600 0 0 0 1
21175 CIRCULAR 0.600 0 0 0 1
21176 CIRCULAR 0.600 0 0 0 1
21177 CIRCULAR 0.600 0 0 0 1
21178 CIRCULAR 0.600 0 0 0 1
21179 CIRCULAR 0.750 0 0 0 1
21180 RECT_CLOSED 0.650 0.600 0 0 1
21181 CIRCULAR 0.600 0 0 0 1
21182 CIRCULAR 0.750 0 0 0 1
21183 CIRCULAR 0.600 0 0 0 1
21184 CIRCULAR 0.600 0 0 0 1
21186 CIRCULAR 0.750 0 0 0 1
21196 CIRCULAR 0.600 0 0 0 1
21197 CIRCULAR 0.900 0 0 0 1
21198 CIRCULAR 0.600 0 0 0 1
21199 CIRCULAR 0.900 0 0 0 1
21200 CIRCULAR 0.900 0 0 0 1
21201 CIRCULAR 0.450 0 0 0 1
21202 CIRCULAR 0.600 0 0 0 1
21203 CIRCULAR 0.600 0 0 0 1
21204 CIRCULAR 0.600 0 0 0 1
21205 CIRCULAR 0.600 0 0 0 1
21206 RECT_CLOSED 0.450 0.450 0 0 1
21207 CIRCULAR 0.600 0 0 0 1
21208 CIRCULAR 0.600 0 0 0 1
21209 CIRCULAR 0.600 0 0 0 1
21211 CIRCULAR 0.600 0 0 0 1
21212 CIRCULAR 0.600 0 0 0 1
21218 CIRCULAR 0.600 0 0 0 1
21219 CIRCULAR 0.600 0 0 0 1
21220 CIRCULAR 0.600 0 0 0 1
21221 CIRCULAR 0.600 0 0 0 1
21225 CIRCULAR 0.600 0 0 0 1
21253 CIRCULAR 0.600 0 0 0 1
21254 CIRCULAR 0.600 0 0 0 1
21255 CIRCULAR 0.600 0 0 0 1
21256 CIRCULAR 0.450 0 0 0 1
21257 RECT_CLOSED 0.450 0.450 0 0 1
21258 CIRCULAR 0.900 0 0 0 1
21259 CIRCULAR 0.600 0 0 0 1
21260 CIRCULAR 0.600 0 0 0 1
21261 CIRCULAR 0.600 0 0 0 1
21262 CIRCULAR 0.600 0 0 0 1
21263 CIRCULAR 0.600 0 0 0 1
21264 RECT_CLOSED 0.540 0.540 0 0 1
21265 RECT_CLOSED 0.540 0.540 0 0 1
21266 RECT_CLOSED 0.540 0.540 0 0 1
21267 RECT_CLOSED 0.540 0.540 0 0 1
21268 RECT_CLOSED 0.540 0.540 0 0 1
21271 CIRCULAR 0.600 0 0 0 1
21272 RECT_CLOSED 0.540 0.540 0 0 1
21273 CIRCULAR 0.600 0 0 0 1
21274 CIRCULAR 0.600 0 0 0 1
21275 CIRCULAR 0.600 0 0 0 1
21276 CIRCULAR 0.600 0 0 0 1
21277 CIRCULAR 0.600 0 0 0 1
21279 CIRCULAR 0.600 0 0 0 1
21281 CIRCULAR 0.600 0 0 0 1
21282 CIRCULAR 0.600 0 0 0 1
21283 CIRCULAR 0.600 0 0 0 1
21284 CIRCULAR 0.600 0 0 0 1
21285 CIRCULAR 0.600 0 0 0 1
21286 CIRCULAR 0.600 0 0 0 1
21300 CIRCULAR 0.450 0 0 0 1
21301 CIRCULAR 0.450 0 0 0 1
21302 CIRCULAR 0.600 0 0 0 1
21303 CIRCULAR 0.450 0 0 0 1
21304 CIRCULAR 0.600 0 0 0 1
21305 CIRCULAR 0.600 0 0 0 1
21306 CIRCULAR 0.600 0 0 0 1
21307 RECT_CLOSED 0.450 0.450 0 0 1
21308 RECT_CLOSED 0.450 0.450 0 0 1
21309 CIRCULAR 0.600 0 0 0 1
21310 RECT_CLOSED 0.600 0.600 0 0 1
21311 CIRCULAR 0.600 0 0 0 1
21312 RECT_CLOSED 0.750 0.600 0 0 1
21314 CIRCULAR 0.600 0 0 0 1
21315 CIRCULAR 0.600 0 0 0 1
21316 CIRCULAR 0.600 0 0 0 1
21317 CIRCULAR 0.450 0 0 0 1
21318 CIRCULAR 0.600 0 0 0 1
21319 CIRCULAR 0.600 0 0 0 1
21320 CIRCULAR 0.600 0 0 0 1
21321 CIRCULAR 0.600 0 0 0 1
21322 CIRCULAR 0.450 0 0 0 1
21323 CIRCULAR 0.600 0 0 0 1
21324 CIRCULAR 0.450 0 0 0 1
21325 CIRCULAR 0.600 0 0 0 1
21326 CIRCULAR 0.600 0 0 0 1
21327 CIRCULAR 0.600 0 0 0 1
21328 CIRCULAR 0.600 0 0 0 1
21329 CIRCULAR 0.600 0 0 0 1
21330 CIRCULAR 0.600 0 0 0 1
21331 CIRCULAR 0.600 0 0 0 1
21333 CIRCULAR 0.600 0 0 0 1
21334 CIRCULAR 0.600 0 0 0 1
21335 CIRCULAR 0.600 0 0 0 1
21336 CIRCULAR 0.600 0 0 0 1
21337 CIRCULAR 0.600 0 0 0 1
21338 CIRCULAR 0.600 0 0 0 1
12453 CIRCULAR 0.600 0 0 0 1
12454 CIRCULAR 0.900 0 0 0 1
12455 RECT_CLOSED 2.000 2.400 0 0 1
12456 RECT_CLOSED 1.830 2.440 0 0 1
12457 CIRCULAR 0.450 0 0 0 1
12458 CIRCULAR 0.600 0 0 0 1
12459 CIRCULAR 0.900 0 0 0 1
12460 CIRCULAR 0.600 0 0 0 1
12461 RECT_CLOSED 2.000 2.400 0 0 1
12599 CIRCULAR 0.300 0 0 0 1
12600 CIRCULAR 0.300 0 0 0 1
12602 CIRCULAR 0.230 0 0 0 1
14287 CIRCULAR 0.600 0 0 0 1
14289 CIRCULAR 0.900 0 0 0 1
14290 CIRCULAR 0.600 0 0 0 1
14291 CIRCULAR 0.900 0 0 0 1
14292 CIRCULAR 0.600 0 0 0 1
14293 CIRCULAR 0.900 0 0 0 1
14295 CIRCULAR 0.900 0 0 0 1
14296 CIRCULAR 0.900 0 0 0 1
14297 RECT_CLOSED 2.000 2.400 0 0 1
14298 RECT_CLOSED 2.000 2.400 0 0 1
14299 RECT_CLOSED 2.000 2.400 0 0 1
14300 RECT_CLOSED 2.000 2.400 0 0 1
14301 RECT_CLOSED 2.000 2.400 0 0 1
14302 RECT_CLOSED 2.000 2.400 0 0 1
14304 RECT_CLOSED 2.000 2.400 0 0 1
14305 RECT_CLOSED 2.000 2.400 0 0 1
14311 CIRCULAR 0.600 0 0 0 1
14312 CIRCULAR 0.600 0 0 0 1
14313 CIRCULAR 0.600 0 0 0 1
14322 CIRCULAR 0.305 0 0 0 1
14344 CIRCULAR 0.750 0 0 0 1
14345 CIRCULAR 0.750 0 0 0 1
14346 RECT_CLOSED 2.000 2.400 0 0 1
14347 RECT_CLOSED 1.830 2.440 0 0 1
14348 RECT_CLOSED 2.000 2.400 0 0 1
14349 RECT_CLOSED 1.830 2.440 0 0 1
14350 RECT_CLOSED 1.830 2.440 0 0 1
14351 CIRCULAR 0.750 0 0 0 1
14352 CIRCULAR 0.750 0 0 0 1
14353 RECT_CLOSED 1.830 2.440 0 0 1
14354 CIRCULAR 0.750 0 0 0 1
14355 CIRCULAR 0.750 0 0 0 1
14358 RECT_CLOSED 1.830 2.440 0 0 1
14360 RECT_CLOSED 1.830 2.440 0 0 1
14361 RECT_CLOSED 1.830 2.440 0 0 1
14362 CIRCULAR 0.600 0 0 0 1
14363 CIRCULAR 0.600 0 0 0 1
14365 CIRCULAR 0.600 0 0 0 1
14366 CIRCULAR 0.600 0 0 0 1
14368 CIRCULAR 0.600 0 0 0 1
14369 CIRCULAR 0.600 0 0 0 1
14373 CIRCULAR 0.600 0 0 0 1
14374 CIRCULAR 0.600 0 0 0 1
14379 CIRCULAR 0.750 0 0 0 1
14380 CIRCULAR 0.750 0 0 0 1
14381 CIRCULAR 0.750 0 0 0 1
14382 RECT_CLOSED 1.830 2.440 0 0 1
14383 RECT_CLOSED 1.830 2.440 0 0 1
14384 RECT_CLOSED 1.830 2.440 0 0 1
14385 RECT_CLOSED 1.830 2.440 0 0 1
14386 RECT_CLOSED 1.830 2.440 0 0 1
14387 RECT_CLOSED 1.830 2.440 0 0 1
14388 RECT_CLOSED 1.830 2.440 0 0 1
14389 RECT_CLOSED 1.830 2.440 0 0 1
14390 RECT_CLOSED 1.830 2.440 0 0 1
14391 RECT_CLOSED 1.830 2.440 0 0 1
14392 CIRCULAR 0.600 0 0 0 1
14393 CIRCULAR 0.600 0 0 0 1
14394 CIRCULAR 0.600 0 0 0 1
14395 CIRCULAR 0.600 0 0 0 1
14396 CIRCULAR 0.900 0 0 0 1
14397 CIRCULAR 0.600 0 0 0 1
14398 CIRCULAR 0.900 0 0 0 1
14399 CIRCULAR 0.600 0 0 0 1
14400 CIRCULAR 0.900 0 0 0 1
14401 CIRCULAR 0.600 0 0 0 1
14404 CIRCULAR 0.600 0 0 0 1
14407 RECT_CLOSED 1.830 2.440 0 0 1
14408 RECT_CLOSED 1.830 2.440 0 0 1
14409 RECT_CLOSED 1.830 2.440 0 0 1
14410 RECT_CLOSED 1.830 2.440 0 0 1
14411 RECT_CLOSED 1.830 2.440 0 0 1
14412 CIRCULAR 0.900 0 0 0 1
14413 RECT_CLOSED 1.830 2.440 0 0 1
14414 RECT_CLOSED 1.830 2.440 0 0 1
14415 RECT_CLOSED 1.830 2.440 0 0 1
14416 RECT_CLOSED 1.830 2.440 0 0 1
14417 CIRCULAR 0.600 0 0 0 1
14421 RECT_CLOSED 1.830 2.440 0 0 1
14422 RECT_CLOSED 1.830 2.440 0 0 1
14423 RECT_CLOSED 1.830 2.440 0 0 1
14424 RECT_CLOSED 1.830 2.440 0 0 1
14425 RECT_CLOSED 1.830 2.440 0 0 1
14426 RECT_CLOSED 1.830 2.440 0 0 1
14427 RECT_CLOSED 1.830 2.440 0 0 1
14428 RECT_CLOSED 1.830 2.440 0 0 1
14430 RECT_CLOSED 1.200 1.500 0 0 1
14433 RECT_CLOSED 1.830 2.440 0 0 1
14434 RECT_CLOSED 1.830 2.440 0 0 1
14435 RECT_CLOSED 1.830 2.440 0 0 1
14436 RECT_CLOSED 1.830 2.440 0 0 1
14437 RECT_CLOSED 1.830 2.440 0 0 1
14438 RECT_CLOSED 1.830 2.440 0 0 1
14440 RECT_CLOSED 2.250 1.450 0 0 1
14441 RECT_CLOSED 1.200 1.500 0 0 1
14442 RECT_CLOSED 1.200 1.500 0 0 1
14443 CIRCULAR 0.900 0 0 0 1
14455 CIRCULAR 0.900 0 0 0 1
14457 CIRCULAR 0.900 0 0 0 1
14458 RECT_CLOSED 1.200 1.500 0 0 1
14459 RECT_CLOSED 1.200 1.500 0 0 1
14460 RECT_CLOSED 1.200 1.500 0 0 1
14461 CIRCULAR 0.600 0 0 0 1
14462 RECT_CLOSED 1.200 3.000 0 0 1
14463 RECT_CLOSED 1.200 3.000 0 0 1
14464 RECT_CLOSED 1.200 3.000 0 0 1
14465 CIRCULAR 0.600 0 0 0 1
14466 RECT_CLOSED 1.200 3.000 0 0 1
14467 CIRCULAR 1.200 0 0 0 1
14468 RECT_CLOSED 1.200 3.000 0 0 1
14470 CIRCULAR 0.600 0 0 0 1
14474 CIRCULAR 0.900 0 0 0 1
14475 CIRCULAR 0.900 0 0 0 1
14478 RECT_CLOSED 1.200 3.000 0 0 1
14480 RECT_CLOSED 1.200 3.000 0 0 1
14483 CIRCULAR 0.900 0 0 0 1
14484 CIRCULAR 0.900 0 0 0 1
14486 CIRCULAR 0.900 0 0 0 1
14487 CIRCULAR 0.900 0 0 0 1
14488 RECT_CLOSED 1.200 1.500 0 0 1
14489 RECT_CLOSED 1.200 1.500 0 0 1
14492 CIRCULAR 0.900 0 0 0 1
14494 CIRCULAR 0.900 0 0 0 1
14499 CIRCULAR 0.750 0 0 0 1
14500 CIRCULAR 0.750 0 0 0 1
14501 CIRCULAR 0.450 0 0 0 1
14503 CIRCULAR 0.900 0 0 0 1
14507 CIRCULAR 0.600 0 0 0 1
14508 CIRCULAR 0.600 0 0 0 1
14509 CIRCULAR 0.600 0 0 0 1
14510 CIRCULAR 0.600 0 0 0 1
14512 CIRCULAR 0.600 0 0 0 1
14513 CIRCULAR 0.600 0 0 0 1
14515 CIRCULAR 0.600 0 0 0 1
14518 RECT_CLOSED 0.450 0.450 0 0 1
14519 CIRCULAR 0.450 0 0 0 1
14520 RECT_CLOSED 0.450 0.450 0 0 1
14521 CIRCULAR 0.450 0 0 0 1
14523 RECT_CLOSED 1.200 3.000 0 0 1
14524 RECT_CLOSED 0.450 0.450 0 0 1
14526 RECT_CLOSED 1.200 3.000 0 0 1
14527 RECT_CLOSED 0.450 0.450 0 0 1
14528 RECT_CLOSED 0.450 0.450 0 0 1
14529 RECT_CLOSED 0.450 0.450 0 0 1
14530 RECT_CLOSED 0.450 0.450 0 0 1
14531 RECT_CLOSED 0.450 0.450 0 0 1
14532 RECT_CLOSED 0.450 0.450 0 0 1
14533 CIRCULAR 0.750 0 0 0 1
14534 CIRCULAR 0.750 0 0 0 1
14535 CIRCULAR 0.750 0 0 0 1
14536 CIRCULAR 0.750 0 0 0 1
14537 RECT_CLOSED 1.200 3.000 0 0 1
14539 CIRCULAR 0.900 0 0 0 1
14540 CIRCULAR 0.750 0 0 0 1
14541 CIRCULAR 0.750 0 0 0 1
14542 CIRCULAR 0.750 0 0 0 1
14543 CIRCULAR 0.450 0 0 0 1
14544 CIRCULAR 0.750 0 0 0 1
14545 CIRCULAR 0.750 0 0 0 1
14546 CIRCULAR 0.750 0 0 0 1
14549 CIRCULAR 0.600 0 0 0 1
14550 CIRCULAR 0.600 0 0 0 1
14551 CIRCULAR 0.600 0 0 0 1
14552 CIRCULAR 0.600 0 0 0 1
14580 CIRCULAR 0.600 0 0 0 1
14581 CIRCULAR 0.600 0 0 0 1
14588 CIRCULAR 0.300 0 0 0 1
14638 CIRCULAR 0.305 0 0 0 1
14640 CIRCULAR 0.600 0 0 0 1
14644 CIRCULAR 0.450 0 0 0 1
14645 CIRCULAR 0.450 0 0 0 1
14647 CIRCULAR 0.450 0 0 0 1
14649 CIRCULAR 0.300 0 0 0 1
14653 CIRCULAR 0.450 0 0 0 1
14655 CIRCULAR 0.450 0 0 0 1
14658 CIRCULAR 0.450 0 0 0 1
14660 CIRCULAR 0.450 0 0 0 1
14661 CIRCULAR 0.450 0 0 0 1
14665 CIRCULAR 0.450 0 0 0 1
14666 CIRCULAR 0.450 0 0 0 1
14667 CIRCULAR 0.450 0 0 0 1
14668 CIRCULAR 0.450 0 0 0 1
14670 CIRCULAR 0.300 0 0 0 1
14672 CIRCULAR 0.300 0 0 0 1
14673 CIRCULAR 0.300 0 0 0 1
14691 CIRCULAR 0.600 0 0 0 1
14692 CIRCULAR 0.450 0 0 0 1
14693 CIRCULAR 0.600 0 0 0 1
14694 CIRCULAR 0.450 0 0 0 1
14695 CIRCULAR 0.450 0 0 0 1
14696 CIRCULAR 0.450 0 0 0 1
14697 CIRCULAR 0.450 0 0 0 1
14698 CIRCULAR 0.450 0 0 0 1
14699 CIRCULAR 0.405 0 0 0 1
14700 CIRCULAR 0.600 0 0 0 1
14701 RECT_CLOSED 0.600 0.650 0 0 1
14703 CIRCULAR 0.305 0 0 0 1
14704 CIRCULAR 0.305 0 0 0 1
14705 RECT_CLOSED 0.620 0.446 0 0 1
14708 CIRCULAR 0.600 0 0 0 1
14709 CIRCULAR 0.450 0 0 0 1
14710 CIRCULAR 0.450 0 0 0 1
14711 CIRCULAR 0.600 0 0 0 1
14712 CIRCULAR 0.450 0 0 0 1
14713 CIRCULAR 0.450 0 0 0 1
14714 CIRCULAR 0.305 0 0 0 1
14715 CIRCULAR 0.305 0 0 0 1
14716 CIRCULAR 0.600 0 0 0 1
14717 CIRCULAR 0.600 0 0 0 1
14718 CIRCULAR 0.600 0 0 0 1
14722 RECT_CLOSED 0.500 0.400 0 0 1
14724 RECT_CLOSED 0.550 0.650 0 0 1
14725 RECT_CLOSED 0.500 0.400 0 0 1
14726 RECT_CLOSED 0.750 0.650 0 0 1
14729 RECT_CLOSED 0.600 0.600 0 0 1
14735 CIRCULAR 0.600 0 0 0 1
14736 CIRCULAR 0.600 0 0 0 1
14737 CIRCULAR 0.600 0 0 0 1
14744 CIRCULAR 0.274 0 0 0 1
14745 CIRCULAR 0.274 0 0 0 1
14746 RECT_CLOSED 0.600 0.600 0 0 1
14747 CIRCULAR 0.450 0 0 0 1
14748 CIRCULAR 0.274 0 0 0 1
14749 RECT_CLOSED 0.450 0.600 0 0 1
14750 CIRCULAR 0.274 0 0 0 1
14754 CIRCULAR 0.450 0 0 0 1
14755 CIRCULAR 0.305 0 0 0 1
14756 CIRCULAR 0.300 0 0 0 1
14757 CIRCULAR 0.305 0 0 0 1
14758 CIRCULAR 0.305 0 0 0 1
14760 CIRCULAR 0.450 0 0 0 1
14765 CIRCULAR 0.305 0 0 0 1
14766 CIRCULAR 0.305 0 0 0 1
14768 RECT_CLOSED 0.600 0.520 0 0 1
14772 RECT_CLOSED 0.600 0.520 0 0 1
14773 RECT_CLOSED 0.600 0.520 0 0 1
14775 RECT_CLOSED 0.750 0.700 0 0 1
14776 RECT_CLOSED 0.750 0.700 0 0 1
14777 RECT_CLOSED 0.800 0.700 0 0 1
14800 RECT_CLOSED 0.700 0.650 0 0 1
14802 CIRCULAR 0.600 0 0 0 1
14806 CIRCULAR 0.300 0 0 0 1
14807 CIRCULAR 0.300 0 0 0 1
14808 RECT_CLOSED 0.600 0.600 0 0 1
14809 RECT_CLOSED 0.600 0.600 0 0 1
14810 RECT_CLOSED 0.600 0.600 0 0 1
14811 CIRCULAR 0.600 0 0 0 1
14812 RECT_CLOSED 0.600 0.450 0 0 1
14813 RECT_CLOSED 0.600 0.500 0 0 1
14814 CIRCULAR 0.300 0 0 0 1
14815 RECT_CLOSED 0.600 0.500 0 0 1
14817 RECT_CLOSED 0.500 0.400 0 0 1
14819 RECT_CLOSED 0.500 0.400 0 0 1
14820 CIRCULAR 0.305 0 0 0 1
14821 RECT_CLOSED 0.850 1.100 0 0 1
14822 RECT_CLOSED 1.830 2.440 0 0 1
14823 RECT_CLOSED 1.800 2.600 0 0 1
14824 RECT_CLOSED 1.830 2.440 0 0 1
14825 RECT_CLOSED 1.830 2.440 0 0 1
14826 RECT_CLOSED 1.830 2.440 0 0 1
14851 CIRCULAR 0.305 0 0 0 1
14852 CIRCULAR 0.450 0 0 0 1
14854 CIRCULAR 0.305 0 0 0 1
14856 CIRCULAR 0.305 0 0 0 1
14858 CIRCULAR 0.450 0 0 0 1
14859 CIRCULAR 0.305 0 0 0 1
14860 CIRCULAR 0.305 0 0 0 1
14861 CIRCULAR 0.300 0 0 0 1
14862 CIRCULAR 0.305 0 0 0 1
14863 CIRCULAR 0.300 0 0 0 1
14864 CIRCULAR 0.450 0 0 0 1
14865 CIRCULAR 0.300 0 0 0 1
14866 RECT_CLOSED 1.830 2.440 0 0 1
14867 RECT_CLOSED 1.830 2.440 0 0 1
14868 RECT_CLOSED 1.830 2.440 0 0 1
14869 RECT_CLOSED 1.830 2.440 0 0 1
14870 RECT_CLOSED 1.830 2.440 0 0 1
14871 RECT_CLOSED 1.830 2.440 0 0 1
14872 RECT_CLOSED 1.200 0.900 0 0 1
14873 RECT_CLOSED 1.200 0.900 0 0 1
14879 RECT_CLOSED 1.050 0.900 0 0 1
14908 RECT_CLOSED 1.200 0.900 0 0 1
14909 RECT_CLOSED 1.200 0.900 0 0 1
14910 RECT_CLOSED 1.100 1.000 0 0 1
14911 RECT_CLOSED 1.100 0.900 0 0 1
14915 CIRCULAR 0.450 0 0 0 1
14916 RECT_CLOSED 1.100 0.900 0 0 1
14917 RECT_CLOSED 1.100 0.900 0 0 1
14918 RECT_CLOSED 1.100 0.900 0 0 1
14919 RECT_CLOSED 1.100 0.900 0 0 1
14921 RECT_CLOSED 1.100 0.900 0 0 1
14923 RECT_CLOSED 0.600 0.560 0 0 1
14925 RECT_CLOSED 0.450 0.500 0 0 1
14926 RECT_CLOSED 0.600 0.540 0 0 1
14949 RECT_CLOSED 1.200 0.900 0 0 1
14951 RECT_CLOSED 1.100 0.900 0 0 1
14952 RECT_CLOSED 1.100 0.900 0 0 1
14953 RECT_CLOSED 1.100 0.900 0 0 1
14954 RECT_CLOSED 1.100 0.900 0 0 1
14955 RECT_CLOSED 0.450 0.500 0 0 1
14956 RECT_CLOSED 1.050 0.900 0 0 1
14957 RECT_CLOSED 1.050 0.900 0 0 1
14959 RECT_CLOSED 0.450 0.500 0 0 1
14979 CIRCULAR 0.300 0 0 0 1
14980 CIRCULAR 0.300 0 0 0 1
14990 CIRCULAR 0.300 0 0 0 1
14991 CIRCULAR 0.300 0 0 0 1
14992 CIRCULAR 0.300 0 0 0 1
14995 CIRCULAR 0.450 0 0 0 1
14996 CIRCULAR 0.450 0 0 0 1
14997 CIRCULAR 0.450 0 0 0 1
14998 CIRCULAR 0.450 0 0 0 1
14999 CIRCULAR 0.450 0 0 0 1
15000 CIRCULAR 0.450 0 0 0 1
15001 CIRCULAR 0.450 0 0 0 1
15003 CIRCULAR 0.450 0 0 0 1
15004 CIRCULAR 0.450 0 0 0 1
15005 CIRCULAR 0.450 0 0 0 1
15012 CIRCULAR 0.450 0 0 0 1
15014 CIRCULAR 0.450 0 0 0 1
15015 CIRCULAR 0.450 0 0 0 1
15025 CIRCULAR 0.305 0 0 0 1
15026 CIRCULAR 0.305 0 0 0 1
15040 CIRCULAR 0.750 0 0 0 1
15042 CIRCULAR 0.450 0 0 0 1
15044 CIRCULAR 0.450 0 0 0 1
15047 CIRCULAR 0.305 0 0 0 1
15048 CIRCULAR 0.305 0 0 0 1
15049 CIRCULAR 0.750 0 0 0 1
15050 CIRCULAR 0.450 0 0 0 1
15051 CIRCULAR 0.600 0 0 0 1
15053 CIRCULAR 0.750 0 0 0 1
15067 RECT_CLOSED 0.450 0.450 0 0 1
15081 CIRCULAR 0.450 0 0 0 1
15106 CIRCULAR 0.305 0 0 0 1
15107 CIRCULAR 0.305 0 0 0 1
15114 CIRCULAR 0.305 0 0 0 1
15117 CIRCULAR 0.305 0 0 0 1
15118 RECT_CLOSED 0.540 0.420 0 0 1
15121 CIRCULAR 0.305 0 0 0 1
15122 CIRCULAR 0.305 0 0 0 1
15124 CIRCULAR 0.305 0 0 0 1
15127 RECT_CLOSED 0.530 0.430 0 0 1
15128 RECT_CLOSED 0.530 0.430 0 0 1
15130 CIRCULAR 0.305 0 0 0 1
15132 CIRCULAR 0.305 0 0 0 1
15133 CIRCULAR 0.305 0 0 0 1
15134 CIRCULAR 0.305 0 0 0 1
15135 CIRCULAR 0.470 0 0 0 1
15136 CIRCULAR 0.305 0 0 0 1
15137 CIRCULAR 0.305 0 0 0 1
15153 CIRCULAR 0.305 0 0 0 1
15154 CIRCULAR 0.305 0 0 0 1
15155 CIRCULAR 0.305 0 0 0 1
15156 CIRCULAR 0.305 0 0 0 1
15157 CIRCULAR 0.300 0 0 0 1
15162 CIRCULAR 0.300 0 0 0 1
15169 CIRCULAR 0.305 0 0 0 1
15170 CIRCULAR 0.305 0 0 0 1
15173 CIRCULAR 0.305 0 0 0 1
15174 CIRCULAR 0.305 0 0 0 1
15175 RECT_CLOSED 0.600 0.450 0 0 1
15181 RECT_CLOSED 0.600 0.450 0 0 1
15182 RECT_CLOSED 0.600 0.450 0 0 1
15183 RECT_CLOSED 0.600 0.450 0 0 1
15185 CIRCULAR 0.600 0 0 0 1
15186 RECT_CLOSED 0.600 0.450 0 0 1
15187 RECT_CLOSED 0.600 0.450 0 0 1
15194 CIRCULAR 0.305 0 0 0 1
15195 CIRCULAR 0.305 0 0 0 1
15196 CIRCULAR 0.305 0 0 0 1
15220 CIRCULAR 0.300 0 0 0 1
15228 CIRCULAR 0.600 0 0 0 1
15229 CIRCULAR 0.600 0 0 0 1
15230 CIRCULAR 0.600 0 0 0 1
15234 CIRCULAR 0.600 0 0 0 1
15236 CIRCULAR 0.600 0 0 0 1
15237 CIRCULAR 0.600 0 0 0 1
15239 CIRCULAR 0.450 0 0 0 1
15240 CIRCULAR 0.450 0 0 0 1
15242 CIRCULAR 0.450 0 0 0 1
15243 CIRCULAR 0.450 0 0 0 1
15244 CIRCULAR 0.300 0 0 0 1
15245 CIRCULAR 0.300 0 0 0 1
15246 CIRCULAR 0.300 0 0 0 1
15280 CIRCULAR 0.450 0 0 0 1
15281 CIRCULAR 0.450 0 0 0 1
15283 CIRCULAR 0.450 0 0 0 1
15285 CIRCULAR 0.450 0 0 0 1
15286 CIRCULAR 0.450 0 0 0 1
15287 CIRCULAR 0.450 0 0 0 1
15288 CIRCULAR 0.305 0 0 0 1
15289 CIRCULAR 0.305 0 0 0 1
15290 RECT_CLOSED 0.500 0.450 0 0 1
15291 RECT_CLOSED 0.500 0.450 0 0 1
15295 RECT_CLOSED 0.600 0.450 0 0 1
15296 CIRCULAR 0.305 0 0 0 1
2171049803_COLLECT CIRCULAR 5.000 0 0 0 1
2172038505_COLLECT CIRCULAR 5.000 0 0 0 1
2172038509_COLLECT CIRCULAR 5.000 0 0 0 1
2172039202_COLLECT CIRCULAR 5.000 0 0 0 1
2172039304_COLLECT CIRCULAR 5.000 0 0 0 1
2172043605_COLLECT CIRCULAR 5.000 0 0 0 1
2172043606_COLLECT CIRCULAR 5.000 0 0 0 1
2172043905_COLLECT CIRCULAR 5.000 0 0 0 1
2172044706_COLLECT CIRCULAR 5.000 0 0 0 1
2172045701_COLLECT CIRCULAR 5.000 0 0 0 1
2172052105_COLLECT CIRCULAR 5.000 0 0 0 1
2172056405_COLLECT CIRCULAR 5.000 0 0 0 1
2172057101_COLLECT CIRCULAR 5.000 0 0 0 1
2172057309_COLLECT CIRCULAR 5.000 0 0 0 1
2172059301_COLLECT CIRCULAR 5.000 0 0 0 1
2173031302_COLLECT CIRCULAR 5.000 0 0 0 1
2173031402_COLLECT CIRCULAR 5.000 0 0 0 1
2173033601_COLLECT CIRCULAR 5.000 0 0 0 1
2173035301_COLLECT CIRCULAR 5.000 0 0 0 1
2173047701_COLLECT CIRCULAR 5.000 0 0 0 1
2173048204_COLLECT CIRCULAR 5.000 0 0 0 1
2173059104_COLLECT CIRCULAR 5.000 0 0 0 1
2174041502_COLLECT CIRCULAR 5.000 0 0 0 1
2174041801_COLLECT CIRCULAR 5.000 0 0 0 1
2174042901_COLLECT CIRCULAR 5.000 0 0 0 1
2174052402_COLLECT CIRCULAR 5.000 0 0 0 1
2174053507_COLLECT CIRCULAR 5.000 0 0 0 1

[TIMESERIES]
;;Name Date Time Value(mm/h)
rain 00:00 50.000
rain 00:05 50.000
rain 00:10 50.000
rain 00:15 50.000
rain 00:20 50.000
rain 00:25 50.000
rain 00:30 50.000
rain 00:35 50.000
rain 00:40 50.000
rain 00:45 50.000
rain 00:50 50.000
rain 00:55 50.000
rain 01:00 50.000
rain 01:05 50.000
rain 01:10 50.000
rain 01:15 50.000
rain 01:20 50.000
rain 01:25 50.000
rain 01:30 50.000
rain 01:35 50.000
rain 01:40 50.000
rain 01:45 50.000
rain 01:50 50.000
rain 01:55 50.000
rain 02:00 0.000
rain 02:05 0.000
rain 02:10 0.000
rain 02:15 0.000
rain 02:20 0.000
rain 02:25 0.000
rain 02:30 0.000
rain 02:35 0.000
rain 02:40 0.000
rain 02:45 0.000
rain 02:50 0.000
rain 02:55 0.000
rain 03:00 0.000
qin 00:00 0.064208
qin 00:05 0.064208
qin 00:10 0.064208
qin 00:15 0.064208
qin 00:20 0.064208
qin 00:25 0.064208
qin 00:30 0.064208
qin 00:35 0.064208
qin 00:40 0.064208
qin 00:45 0.064208
qin 00:50 0.064208
qin 00:55 0.064208
qin 01:00 0.064208
qin 01:05 0.064208
qin 01:10 0.064208
qin 01:15 0.064208
qin 01:20 0.064208
qin 01:25 0.064208
qin 01:30 0.064208
qin 01:35 0.064208
qin 01:40 0.064208
qin 01:45 0.064208
qin 01:50 0.064208
qin 01:55 0.064208
qin 02:00 0.000000
qin 02:05 0.000000
qin 02:10 0.000000
qin 02:15 0.000000
qin 02:20 0.000000
qin 02:25 0.000000
qin 02:30 0.000000
qin 02:35 0.000000
qin 02:40 0.000000
qin 02:45 0.000000
qin 02:50 0.000000
qin 02:55 0.000000
qin 03:00 0.000000

[INFLOWS]
;;Node Constituent TimeSeries Type Mfactor Sfactor
2171039212 FLOW qin FLOW 1.0 1.0
2171039213 FLOW qin FLOW 1.0 1.0
2171039214 FLOW qin FLOW 1.0 1.0
2171039215 FLOW qin FLOW 1.0 1.0
2171039216 FLOW qin FLOW 1.0 1.0
2171039217 FLOW qin FLOW 1.0 1.0
2171039218 FLOW qin FLOW 1.0 1.0
2171039301 FLOW qin FLOW 1.0 1.0
2171049801 FLOW qin FLOW 1.0 1.0
2171049802 FLOW qin FLOW 1.0 1.0
2171049803 FLOW qin FLOW 1.0 1.0
2171049804 FLOW qin FLOW 1.0 1.0
2172030101 FLOW qin FLOW 1.0 1.0
2172030103 FLOW qin FLOW 1.0 1.0
2172030104 FLOW qin FLOW 1.0 1.0
2172030105 FLOW qin FLOW 1.0 1.0
2172030106 FLOW qin FLOW 1.0 1.0
2172030107 FLOW qin FLOW 1.0 1.0
2172030109 FLOW qin FLOW 1.0 1.0
2172030201 FLOW qin FLOW 1.0 1.0
2172030301 FLOW qin FLOW 1.0 1.0
2172030302 FLOW qin FLOW 1.0 1.0
2172030303 FLOW qin FLOW 1.0 1.0
2172030304 FLOW qin FLOW 1.0 1.0
2172030305 FLOW qin FLOW 1.0 1.0
2172030306 FLOW qin FLOW 1.0 1.0
2172030402 FLOW qin FLOW 1.0 1.0
2172030403 FLOW qin FLOW 1.0 1.0
2172030505 FLOW qin FLOW 1.0 1.0
2172030506 FLOW qin FLOW 1.0 1.0
2172030601 FLOW qin FLOW 1.0 1.0
2172030903 FLOW qin FLOW 1.0 1.0
2172031301 FLOW qin FLOW 1.0 1.0
2172031302 FLOW qin FLOW 1.0 1.0
2172031401 FLOW qin FLOW 1.0 1.0
2172031402 FLOW qin FLOW 1.0 1.0
2172031403 FLOW qin FLOW 1.0 1.0
2172031404 FLOW qin FLOW 1.0 1.0
2172031405 FLOW qin FLOW 1.0 1.0
2172031406 FLOW qin FLOW 1.0 1.0
2172031407 FLOW qin FLOW 1.0 1.0
2172031408 FLOW qin FLOW 1.0 1.0
2172031409 FLOW qin FLOW 1.0 1.0
2172031503 FLOW qin FLOW 1.0 1.0
2172031505 FLOW qin FLOW 1.0 1.0
2172031506 FLOW qin FLOW 1.0 1.0
2172031601 FLOW qin FLOW 1.0 1.0
2172031602 FLOW qin FLOW 1.0 1.0
2172031604 FLOW qin FLOW 1.0 1.0
2172031605 FLOW qin FLOW 1.0 1.0
2172031801 FLOW qin FLOW 1.0 1.0
2172031802 FLOW qin FLOW 1.0 1.0
2172031901 FLOW qin FLOW 1.0 1.0
2172031902 FLOW qin FLOW 1.0 1.0
2172032301 FLOW qin FLOW 1.0 1.0
2172032302 FLOW qin FLOW 1.0 1.0
2172032303 FLOW qin FLOW 1.0 1.0
2172032501 FLOW qin FLOW 1.0 1.0
2172032502 FLOW qin FLOW 1.0 1.0
2172032503 FLOW qin FLOW 1.0 1.0
2172032504 FLOW qin FLOW 1.0 1.0
2172032601 FLOW qin FLOW 1.0 1.0
2172032602 FLOW qin FLOW 1.0 1.0
2172032603 FLOW qin FLOW 1.0 1.0
2172032604 FLOW qin FLOW 1.0 1.0
2172032605 FLOW qin FLOW 1.0 1.0
2172032606 FLOW qin FLOW 1.0 1.0
2172032701 FLOW qin FLOW 1.0 1.0
2172032702 FLOW qin FLOW 1.0 1.0
2172032703 FLOW qin FLOW 1.0 1.0
2172032704 FLOW qin FLOW 1.0 1.0
2172032705 FLOW qin FLOW 1.0 1.0
2172032706 FLOW qin FLOW 1.0 1.0
2172032707 FLOW qin FLOW 1.0 1.0
2172032708 FLOW qin FLOW 1.0 1.0
2172032709 FLOW qin FLOW 1.0 1.0
2172032710 FLOW qin FLOW 1.0 1.0
2172032803 FLOW qin FLOW 1.0 1.0
2172033601 FLOW qin FLOW 1.0 1.0
2172033602 FLOW qin FLOW 1.0 1.0
2172033603 FLOW qin FLOW 1.0 1.0
2172033604 FLOW qin FLOW 1.0 1.0
2172033701 FLOW qin FLOW 1.0 1.0
2172033702 FLOW qin FLOW 1.0 1.0
2172033703 FLOW qin FLOW 1.0 1.0
2172033704 FLOW qin FLOW 1.0 1.0
2172033705 FLOW qin FLOW 1.0 1.0
2172033801 FLOW qin FLOW 1.0 1.0
2172034701 FLOW qin FLOW 1.0 1.0
2172034702 FLOW qin FLOW 1.0 1.0
2172034801 FLOW qin FLOW 1.0 1.0
2172034802 FLOW qin FLOW 1.0 1.0
2172034803 FLOW qin FLOW 1.0 1.0
2172034804 FLOW qin FLOW 1.0 1.0
2172034805 FLOW qin FLOW 1.0 1.0
2172034806 FLOW qin FLOW 1.0 1.0
2172035701 FLOW qin FLOW 1.0 1.0
2172035901 FLOW qin FLOW 1.0 1.0
2172035902 FLOW qin FLOW 1.0 1.0
2172035903 FLOW qin FLOW 1.0 1.0
2172035904 FLOW qin FLOW 1.0 1.0
2172035905 FLOW qin FLOW 1.0 1.0
2172035906 FLOW qin FLOW 1.0 1.0
2172036601 FLOW qin FLOW 1.0 1.0
2172036602 FLOW qin FLOW 1.0 1.0
2172036603 FLOW qin FLOW 1.0 1.0
2172037001 FLOW qin FLOW 1.0 1.0
2172037202 FLOW qin FLOW 1.0 1.0
2172037204 FLOW qin FLOW 1.0 1.0
2172037501 FLOW qin FLOW 1.0 1.0
2172037502 FLOW qin FLOW 1.0 1.0
2172037503 FLOW qin FLOW 1.0 1.0
2172037701 FLOW qin FLOW 1.0 1.0
2172038101 FLOW qin FLOW 1.0 1.0
2172038102 FLOW qin FLOW 1.0 1.0
2172038103 FLOW qin FLOW 1.0 1.0
2172038104 FLOW qin FLOW 1.0 1.0
2172038201 FLOW qin FLOW 1.0 1.0
2172038202 FLOW qin FLOW 1.0 1.0
2172038203 FLOW qin FLOW 1.0 1.0
2172038302 FLOW qin FLOW 1.0 1.0
2172038303 FLOW qin FLOW 1.0 1.0
2172038306 FLOW qin FLOW 1.0 1.0
2172038308 FLOW qin FLOW 1.0 1.0
2172038403 FLOW qin FLOW 1.0 1.0
2172038404 FLOW qin FLOW 1.0 1.0
2172038406 FLOW qin FLOW 1.0 1.0
2172038407 FLOW qin FLOW 1.0 1.0
2172038501 FLOW qin FLOW 1.0 1.0
2172038502 FLOW qin FLOW 1.0 1.0
2172038503 FLOW qin FLOW 1.0 1.0
2172038505 FLOW qin FLOW 1.0 1.0
2172038506 FLOW qin FLOW 1.0 1.0
2172038509 FLOW qin FLOW 1.0 1.0
2172038512 FLOW qin FLOW 1.0 1.0
2172038513 FLOW qin FLOW 1.0 1.0
2172038514 FLOW qin FLOW 1.0 1.0
2172038602 FLOW qin FLOW 1.0 1.0
2172038701 FLOW qin FLOW 1.0 1.0
2172038702 FLOW qin FLOW 1.0 1.0
2172038703 FLOW qin FLOW 1.0 1.0
2172038704 FLOW qin FLOW 1.0 1.0
2172039101 FLOW qin FLOW 1.0 1.0
2172039102 FLOW qin FLOW 1.0 1.0
2172039104 FLOW qin FLOW 1.0 1.0
2172039202 FLOW qin FLOW 1.0 1.0
2172039203 FLOW qin FLOW 1.0 1.0
2172039204 FLOW qin FLOW 1.0 1.0
2172039205 FLOW qin FLOW 1.0 1.0
2172039206 FLOW qin FLOW 1.0 1.0
2172039302 FLOW qin FLOW 1.0 1.0
2172039303 FLOW qin FLOW 1.0 1.0
2172039304 FLOW qin FLOW 1.0 1.0
2172039305 FLOW qin FLOW 1.0 1.0
2172039306 FLOW qin FLOW 1.0 1.0
2172039307 FLOW qin FLOW 1.0 1.0
2172039308 FLOW qin FLOW 1.0 1.0
2172039309 FLOW qin FLOW 1.0 1.0
2172039310 FLOW qin FLOW 1.0 1.0
2172039311 FLOW qin FLOW 1.0 1.0
2172039401 FLOW qin FLOW 1.0 1.0
2172039402 FLOW qin FLOW 1.0 1.0
2172039403 FLOW qin FLOW 1.0 1.0
2172039404 FLOW qin FLOW 1.0 1.0
2172039405 FLOW qin FLOW 1.0 1.0
2172039407 FLOW qin FLOW 1.0 1.0
2172039501 FLOW qin FLOW 1.0 1.0
2172039502 FLOW qin FLOW 1.0 1.0
2172039503 FLOW qin FLOW 1.0 1.0
2172039504 FLOW qin FLOW 1.0 1.0
2172039506 FLOW qin FLOW 1.0 1.0
2172039507 FLOW qin FLOW 1.0 1.0
2172039508 FLOW qin FLOW 1.0 1.0
2172039703 FLOW qin FLOW 1.0 1.0
2172039704 FLOW qin FLOW 1.0 1.0
2172039705 FLOW qin FLOW 1.0 1.0
2172039706 FLOW qin FLOW 1.0 1.0
2172040701 FLOW qin FLOW 1.0 1.0
2172040702 FLOW qin FLOW 1.0 1.0
2172040802 FLOW qin FLOW 1.0 1.0
2172041709 FLOW qin FLOW 1.0 1.0
2172041802 FLOW qin FLOW 1.0 1.0
2172041902 FLOW qin FLOW 1.0 1.0
2172041903 FLOW qin FLOW 1.0 1.0
2172041905 FLOW qin FLOW 1.0 1.0
2172041907 FLOW qin FLOW 1.0 1.0
2172042301_ FLOW qin FLOW 1.0 1.0
2172042302_ FLOW qin FLOW 1.0 1.0
2172042401_ FLOW qin FLOW 1.0 1.0
2172042402 FLOW qin FLOW 1.0 1.0
2172042403 FLOW qin FLOW 1.0 1.0
2172042604 FLOW qin FLOW 1.0 1.0
2172042605 FLOW qin FLOW 1.0 1.0
2172042701 FLOW qin FLOW 1.0 1.0
2172042702 FLOW qin FLOW 1.0 1.0
2172042802 FLOW qin FLOW 1.0 1.0
2172042901 FLOW qin FLOW 1.0 1.0
2172042902 FLOW qin FLOW 1.0 1.0
2172043301 FLOW qin FLOW 1.0 1.0
2172043401 FLOW qin FLOW 1.0 1.0
2172043401_ FLOW qin FLOW 1.0 1.0
2172043501 FLOW qin FLOW 1.0 1.0
2172043502 FLOW qin FLOW 1.0 1.0
2172043503 FLOW qin FLOW 1.0 1.0
2172043504 FLOW qin FLOW 1.0 1.0
2172043505 FLOW qin FLOW 1.0 1.0
2172043506 FLOW qin FLOW 1.0 1.0
2172043507 FLOW qin FLOW 1.0 1.0
2172043508 FLOW qin FLOW 1.0 1.0
2172043602 FLOW qin FLOW 1.0 1.0
2172043603 FLOW qin FLOW 1.0 1.0
2172043604 FLOW qin FLOW 1.0 1.0
2172043605 FLOW qin FLOW 1.0 1.0
2172043606 FLOW qin FLOW 1.0 1.0
2172043607 FLOW qin FLOW 1.0 1.0
2172043701 FLOW qin FLOW 1.0 1.0
2172043702 FLOW qin FLOW 1.0 1.0
2172043703 FLOW qin FLOW 1.0 1.0
2172043704 FLOW qin FLOW 1.0 1.0
2172043705 FLOW qin FLOW 1.0 1.0
2172043706 FLOW qin FLOW 1.0 1.0
2172043801 FLOW qin FLOW 1.0 1.0
2172043802 FLOW qin FLOW 1.0 1.0
2172043803 FLOW qin FLOW 1.0 1.0
2172043804 FLOW qin FLOW 1.0 1.0
2172043904 FLOW qin FLOW 1.0 1.0
2172043905 FLOW qin FLOW 1.0 1.0
2172043906 FLOW qin FLOW 1.0 1.0
2172043907 FLOW qin FLOW 1.0 1.0
2172044002 FLOW qin FLOW 1.0 1.0
2172044103 FLOW qin FLOW 1.0 1.0
2172044401 FLOW qin FLOW 1.0 1.0
2172044402 FLOW qin FLOW 1.0 1.0
2172044403 FLOW qin FLOW 1.0 1.0
2172044601 FLOW qin FLOW 1.0 1.0
2172044602 FLOW qin FLOW 1.0 1.0
2172044603 FLOW qin FLOW 1.0 1.0
2172044604 FLOW qin FLOW 1.0 1.0
2172044605 FLOW qin FLOW 1.0 1.0
2172044606 FLOW qin FLOW 1.0 1.0
2172044607 FLOW qin FLOW 1.0 1.0
2172044701 FLOW qin FLOW 1.0 1.0
2172044702 FLOW qin FLOW 1.0 1.0
2172044703 FLOW qin FLOW 1.0 1.0
2172044704 FLOW qin FLOW 1.0 1.0
2172044705 FLOW qin FLOW 1.0 1.0
2172044706 FLOW qin FLOW 1.0 1.0
2172044707 FLOW qin FLOW 1.0 1.0
2172044902 FLOW qin FLOW 1.0 1.0
2172044903 FLOW qin FLOW 1.0 1.0
2172044905 FLOW qin FLOW 1.0 1.0
2172044909 FLOW qin FLOW 1.0 1.0
2172044910 FLOW qin FLOW 1.0 1.0
2172045001 FLOW qin FLOW 1.0 1.0
2172045002 FLOW qin FLOW 1.0 1.0
2172045003 FLOW qin FLOW 1.0 1.0
2172045701 FLOW qin FLOW 1.0 1.0
2172045702 FLOW qin FLOW 1.0 1.0
2172045704 FLOW qin FLOW 1.0 1.0
2172045801 FLOW qin FLOW 1.0 1.0
2172045802 FLOW qin FLOW 1.0 1.0
2172045803 FLOW qin FLOW 1.0 1.0
2172045804 FLOW qin FLOW 1.0 1.0
2172045805 FLOW qin FLOW 1.0 1.0
2172045806 FLOW qin FLOW 1.0 1.0
2172045807 FLOW qin FLOW 1.0 1.0
2172045808 FLOW qin FLOW 1.0 1.0
2172045809 FLOW qin FLOW 1.0 1.0
2172045810 FLOW qin FLOW 1.0 1.0
2172045902 FLOW qin FLOW 1.0 1.0
2172045904 FLOW qin FLOW 1.0 1.0
2172045905 FLOW qin FLOW 1.0 1.0
2172046001 FLOW qin FLOW 1.0 1.0
2172046002 FLOW qin FLOW 1.0 1.0
2172046003 FLOW qin FLOW 1.0 1.0
2172046004 FLOW qin FLOW 1.0 1.0
2172046005 FLOW qin FLOW 1.0 1.0
2172046801_ FLOW qin FLOW 1.0 1.0
2172046802_ FLOW qin FLOW 1.0 1.0
2172046803_ FLOW qin FLOW 1.0 1.0
2172046804 FLOW qin FLOW 1.0 1.0
2172046805 FLOW qin FLOW 1.0 1.0
2172046806 FLOW qin FLOW 1.0 1.0
2172046901 FLOW qin FLOW 1.0 1.0
2172046902 FLOW qin FLOW 1.0 1.0
2172046903 FLOW qin FLOW 1.0 1.0
2172046904 FLOW qin FLOW 1.0 1.0
2172046905 FLOW qin FLOW 1.0 1.0
2172047001 FLOW qin FLOW 1.0 1.0
2172047101 FLOW qin FLOW 1.0 1.0
2172047102 FLOW qin FLOW 1.0 1.0
2172047103 FLOW qin FLOW 1.0 1.0
2172047104 FLOW qin FLOW 1.0 1.0
2172047202 FLOW qin FLOW 1.0 1.0
2172047204 FLOW qin FLOW 1.0 1.0
2172047403 FLOW qin FLOW 1.0 1.0
2172048101 FLOW qin FLOW 1.0 1.0
2172048201 FLOW qin FLOW 1.0 1.0
2172048202 FLOW qin FLOW 1.0 1.0
2172048203 FLOW qin FLOW 1.0 1.0
2172048304 FLOW qin FLOW 1.0 1.0
2172048305 FLOW qin FLOW 1.0 1.0
2172048306 FLOW qin FLOW 1.0 1.0
2172048307 FLOW qin FLOW 1.0 1.0
2172048401 FLOW qin FLOW 1.0 1.0
2172048403 FLOW qin FLOW 1.0 1.0
2172048405 FLOW qin FLOW 1.0 1.0
2172048407 FLOW qin FLOW 1.0 1.0
2172048408 FLOW qin FLOW 1.0 1.0
2172049003 FLOW qin FLOW 1.0 1.0
2172049301 FLOW qin FLOW 1.0 1.0
2172049302 FLOW qin FLOW 1.0 1.0
2172049303 FLOW qin FLOW 1.0 1.0
2172049304 FLOW qin FLOW 1.0 1.0
2172049401 FLOW qin FLOW 1.0 1.0
2172049402 FLOW qin FLOW 1.0 1.0
2172049403 FLOW qin FLOW 1.0 1.0
2172049502 FLOW qin FLOW 1.0 1.0
2172051102 FLOW qin FLOW 1.0 1.0
2172051103 FLOW qin FLOW 1.0 1.0
2172052101 FLOW qin FLOW 1.0 1.0
2172052102 FLOW qin FLOW 1.0 1.0
2172052103 FLOW qin FLOW 1.0 1.0
2172052105 FLOW qin FLOW 1.0 1.0
2172052106 FLOW qin FLOW 1.0 1.0
2172052107 FLOW qin FLOW 1.0 1.0
2172052108 FLOW qin FLOW 1.0 1.0
2172052109 FLOW qin FLOW 1.0 1.0
2172052110 FLOW qin FLOW 1.0 1.0
2172052111 FLOW qin FLOW 1.0 1.0
2172052112 FLOW qin FLOW 1.0 1.0
2172052114 FLOW qin FLOW 1.0 1.0
2172052201 FLOW qin FLOW 1.0 1.0
2172052202 FLOW qin FLOW 1.0 1.0
2172053201 FLOW qin FLOW 1.0 1.0
2172053203 FLOW qin FLOW 1.0 1.0
2172053204 FLOW qin FLOW 1.0 1.0
2172053503 FLOW qin FLOW 1.0 1.0
2172053602 FLOW qin FLOW 1.0 1.0
2172054407 FLOW qin FLOW 1.0 1.0
2172054409 FLOW qin FLOW 1.0 1.0
2172054410 FLOW qin FLOW 1.0 1.0
2172054501 FLOW qin FLOW 1.0 1.0
2172054502 FLOW qin FLOW 1.0 1.0
2172054503 FLOW qin FLOW 1.0 1.0
2172054504 FLOW qin FLOW 1.0 1.0
2172054506 FLOW qin FLOW 1.0 1.0
2172055101 FLOW qin FLOW 1.0 1.0
2172055701_ FLOW qin FLOW 1.0 1.0
2172056101 FLOW qin FLOW 1.0 1.0
2172056102 FLOW qin FLOW 1.0 1.0
2172056302 FLOW qin FLOW 1.0 1.0
2172056305 FLOW qin FLOW 1.0 1.0
2172056306 FLOW qin FLOW 1.0 1.0
2172056403 FLOW qin FLOW 1.0 1.0
2172056404 FLOW qin FLOW 1.0 1.0
2172056405 FLOW qin FLOW 1.0 1.0
2172056406 FLOW qin FLOW 1.0 1.0
2172056501 FLOW qin FLOW 1.0 1.0
2172056502 FLOW qin FLOW 1.0 1.0
2172056503 FLOW qin FLOW 1.0 1.0
2172056601 FLOW qin FLOW 1.0 1.0
2172056601_ FLOW qin FLOW 1.0 1.0
2172056602 FLOW qin FLOW 1.0 1.0
2172056602_ FLOW qin FLOW 1.0 1.0
2172056603 FLOW qin FLOW 1.0 1.0
2172056603_ FLOW qin FLOW 1.0 1.0
2172057001 FLOW qin FLOW 1.0 1.0
2172057002 FLOW qin FLOW 1.0 1.0
2172057003 FLOW qin FLOW 1.0 1.0
2172057004 FLOW qin FLOW 1.0 1.0
2172057005 FLOW qin FLOW 1.0 1.0
2172057101 FLOW qin FLOW 1.0 1.0
2172057105 FLOW qin FLOW 1.0 1.0
2172057301 FLOW qin FLOW 1.0 1.0
2172057302 FLOW qin FLOW 1.0 1.0
2172057305 FLOW qin FLOW 1.0 1.0
2172057306 FLOW qin FLOW 1.0 1.0
2172057307 FLOW qin FLOW 1.0 1.0
2172057309 FLOW qin FLOW 1.0 1.0
2172057402 FLOW qin FLOW 1.0 1.0
2172057403 FLOW qin FLOW 1.0 1.0
2172057404 FLOW qin FLOW 1.0 1.0
2172057406 FLOW qin FLOW 1.0 1.0
2172057501 FLOW qin FLOW 1.0 1.0
2172057502 FLOW qin FLOW 1.0 1.0
2172057601 FLOW qin FLOW 1.0 1.0
2172057602 FLOW qin FLOW 1.0 1.0
2172057603 FLOW qin FLOW 1.0 1.0
2172058102 FLOW qin FLOW 1.0 1.0
2172058401 FLOW qin FLOW 1.0 1.0
2172058402 FLOW qin FLOW 1.0 1.0
2172058403 FLOW qin FLOW 1.0 1.0
2172058501 FLOW qin FLOW 1.0 1.0
2172058502 FLOW qin FLOW 1.0 1.0
2172058503 FLOW qin FLOW 1.0 1.0
2172058602 FLOW qin FLOW 1.0 1.0
2172058603 FLOW qin FLOW 1.0 1.0
2172058604 FLOW qin FLOW 1.0 1.0
2172058605 FLOW qin FLOW 1.0 1.0
2172058606 FLOW qin FLOW 1.0 1.0
2172058607 FLOW qin FLOW 1.0 1.0
2172058608 FLOW qin FLOW 1.0 1.0
2172059301 FLOW qin FLOW 1.0 1.0
2172059302 FLOW qin FLOW 1.0 1.0
2172059303 FLOW qin FLOW 1.0 1.0
2172059402 FLOW qin FLOW 1.0 1.0
2172059404 FLOW qin FLOW 1.0 1.0
2172059405 FLOW qin FLOW 1.0 1.0
2172059406 FLOW qin FLOW 1.0 1.0
2172059501 FLOW qin FLOW 1.0 1.0
2172059502 FLOW qin FLOW 1.0 1.0
2172059503 FLOW qin FLOW 1.0 1.0
2172059504 FLOW qin FLOW 1.0 1.0
2172059604 FLOW qin FLOW 1.0 1.0
2172059703 FLOW qin FLOW 1.0 1.0
2173030105 FLOW qin FLOW 1.0 1.0
2173030301 FLOW qin FLOW 1.0 1.0
2173030302 FLOW qin FLOW 1.0 1.0
2173030303 FLOW qin FLOW 1.0 1.0
2173030304 FLOW qin FLOW 1.0 1.0
2173030403 FLOW qin FLOW 1.0 1.0
2173030405 FLOW qin FLOW 1.0 1.0
2173030501 FLOW qin FLOW 1.0 1.0
2173030502 FLOW qin FLOW 1.0 1.0
2173030503 FLOW qin FLOW 1.0 1.0
2173030504 FLOW qin FLOW 1.0 1.0
2173030505 FLOW qin FLOW 1.0 1.0
2173030506 FLOW qin FLOW 1.0 1.0
2173030507 FLOW qin FLOW 1.0 1.0
2173030601 FLOW qin FLOW 1.0 1.0
2173030602 FLOW qin FLOW 1.0 1.0
2173030603 FLOW qin FLOW 1.0 1.0
2173030604 FLOW qin FLOW 1.0 1.0
2173030605 FLOW qin FLOW 1.0 1.0
2173030606 FLOW qin FLOW 1.0 1.0
2173030607 FLOW qin FLOW 1.0 1.0
2173030608 FLOW qin FLOW 1.0 1.0
2173030701 FLOW qin FLOW 1.0 1.0
2173030702 FLOW qin FLOW 1.0 1.0
2173030703 FLOW qin FLOW 1.0 1.0
2173030704 FLOW qin FLOW 1.0 1.0
2173030705 FLOW qin FLOW 1.0 1.0
2173030706 FLOW qin FLOW 1.0 1.0
2173030801 FLOW qin FLOW 1.0 1.0
2173030901 FLOW qin FLOW 1.0 1.0
2173030902 FLOW qin FLOW 1.0 1.0
2173031302 FLOW qin FLOW 1.0 1.0
2173031304 FLOW qin FLOW 1.0 1.0
2173031305 FLOW qin FLOW 1.0 1.0
2173031306 FLOW qin FLOW 1.0 1.0
2173031307 FLOW qin FLOW 1.0 1.0
2173031308 FLOW qin FLOW 1.0 1.0
2173031401 FLOW qin FLOW 1.0 1.0
2173031402 FLOW qin FLOW 1.0 1.0
2173031403 FLOW qin FLOW 1.0 1.0
2173031404 FLOW qin FLOW 1.0 1.0
2173031501 FLOW qin FLOW 1.0 1.0
2173031505 FLOW qin FLOW 1.0 1.0
2173031601 FLOW qin FLOW 1.0 1.0
2173031701 FLOW qin FLOW 1.0 1.0
2173031702 FLOW qin FLOW 1.0 1.0
2173031703 FLOW qin FLOW 1.0 1.0
2173031704 FLOW qin FLOW 1.0 1.0
2173031705 FLOW qin FLOW 1.0 1.0
2173031706 FLOW qin FLOW 1.0 1.0
2173031707 FLOW qin FLOW 1.0 1.0
2173031708 FLOW qin FLOW 1.0 1.0
2173031801 FLOW qin FLOW 1.0 1.0
2173031802 FLOW qin FLOW 1.0 1.0
2173031803 FLOW qin FLOW 1.0 1.0
2173031804 FLOW qin FLOW 1.0 1.0
2173031805 FLOW qin FLOW 1.0 1.0
2173031806 FLOW qin FLOW 1.0 1.0
2173031807 FLOW qin FLOW 1.0 1.0
2173031901 FLOW qin FLOW 1.0 1.0
2173031902 FLOW qin FLOW 1.0 1.0
2173031903 FLOW qin FLOW 1.0 1.0
2173032201 FLOW qin FLOW 1.0 1.0
2173032202 FLOW qin FLOW 1.0 1.0
2173032205 FLOW qin FLOW 1.0 1.0
2173032206 FLOW qin FLOW 1.0 1.0
2173032207 FLOW qin FLOW 1.0 1.0
2173032401 FLOW qin FLOW 1.0 1.0
2173032801_ FLOW qin FLOW 1.0 1.0
2173033201 FLOW qin FLOW 1.0 1.0
2173033202 FLOW qin FLOW 1.0 1.0
2173033204 FLOW qin FLOW 1.0 1.0
2173033207 FLOW qin FLOW 1.0 1.0
2173033301 FLOW qin FLOW 1.0 1.0
2173033302 FLOW qin FLOW 1.0 1.0
2173033303 FLOW qin FLOW 1.0 1.0
2173033402 FLOW qin FLOW 1.0 1.0
2173033404 FLOW qin FLOW 1.0 1.0
2173033501 FLOW qin FLOW 1.0 1.0
2173033601 FLOW qin FLOW 1.0 1.0
2173033602 FLOW qin FLOW 1.0 1.0
2173033603 FLOW qin FLOW 1.0 1.0
2173033604 FLOW qin FLOW 1.0 1.0
2173033605 FLOW qin FLOW 1.0 1.0
2173034201 FLOW qin FLOW 1.0 1.0
2173034202 FLOW qin FLOW 1.0 1.0
2173034203 FLOW qin FLOW 1.0 1.0
2173034204 FLOW qin FLOW 1.0 1.0
2173034205 FLOW qin FLOW 1.0 1.0
2173034302 FLOW qin FLOW 1.0 1.0
2173034303 FLOW qin FLOW 1.0 1.0
2173034501 FLOW qin FLOW 1.0 1.0
2173034502 FLOW qin FLOW 1.0 1.0
2173034503 FLOW qin FLOW 1.0 1.0
2173035301 FLOW qin FLOW 1.0 1.0
2173035401 FLOW qin FLOW 1.0 1.0
2173035401_ FLOW qin FLOW 1.0 1.0
2173035402 FLOW qin FLOW 1.0 1.0
2173035501 FLOW qin FLOW 1.0 1.0
2173035502 FLOW qin FLOW 1.0 1.0
2173036501 FLOW qin FLOW 1.0 1.0
2173036502 FLOW qin FLOW 1.0 1.0
2173036503 FLOW qin FLOW 1.0 1.0
2173036601_ FLOW qin FLOW 1.0 1.0
2173036602 FLOW qin FLOW 1.0 1.0
2173036603 FLOW qin FLOW 1.0 1.0
2173036604 FLOW qin FLOW 1.0 1.0
2173036701 FLOW qin FLOW 1.0 1.0
2173036702 FLOW qin FLOW 1.0 1.0
2173036703 FLOW qin FLOW 1.0 1.0
2173037801 FLOW qin FLOW 1.0 1.0
2173037802 FLOW qin FLOW 1.0 1.0
2173037901 FLOW qin FLOW 1.0 1.0
2173038801 FLOW qin FLOW 1.0 1.0
2173038901 FLOW qin FLOW 1.0 1.0
2173038902 FLOW qin FLOW 1.0 1.0
2173038903 FLOW qin FLOW 1.0 1.0
2173038904 FLOW qin FLOW 1.0 1.0
2173038905 FLOW qin FLOW 1.0 1.0
2173039901 FLOW qin FLOW 1.0 1.0
2173040001 FLOW qin FLOW 1.0 1.0
2173040002 FLOW qin FLOW 1.0 1.0
2173040101 FLOW qin FLOW 1.0 1.0
2173040102 FLOW qin FLOW 1.0 1.0
2173040501 FLOW qin FLOW 1.0 1.0
2173041101 FLOW qin FLOW 1.0 1.0
2173041102 FLOW qin FLOW 1.0 1.0
2173041103 FLOW qin FLOW 1.0 1.0
2173041104 FLOW qin FLOW 1.0 1.0
2173041105 FLOW qin FLOW 1.0 1.0
2173041201 FLOW qin FLOW 1.0 1.0
2173041202 FLOW qin FLOW 1.0 1.0
2173041401 FLOW qin FLOW 1.0 1.0
2173041501 FLOW qin FLOW 1.0 1.0
2173041502 FLOW qin FLOW 1.0 1.0
2173041601 FLOW qin FLOW 1.0 1.0
2173042001 FLOW qin FLOW 1.0 1.0
2173042101 FLOW qin FLOW 1.0 1.0
2173042302 FLOW qin FLOW 1.0 1.0
2173042401 FLOW qin FLOW 1.0 1.0
2173042403 FLOW qin FLOW 1.0 1.0
2173042406 FLOW qin FLOW 1.0 1.0
2173042601 FLOW qin FLOW 1.0 1.0
2173042701 FLOW qin FLOW 1.0 1.0
2173042801 FLOW qin FLOW 1.0 1.0
2173042802 FLOW qin FLOW 1.0 1.0
2173043003 FLOW qin FLOW 1.0 1.0
2173043005 FLOW qin FLOW 1.0 1.0
2173043203 FLOW qin FLOW 1.0 1.0
2173043301 FLOW qin FLOW 1.0 1.0
2173043302 FLOW qin FLOW 1.0 1.0
2173043303 FLOW qin FLOW 1.0 1.0
2173043304 FLOW qin FLOW 1.0 1.0
2173043305 FLOW qin FLOW 1.0 1.0
2173043401 FLOW qin FLOW 1.0 1.0
2173043402 FLOW qin FLOW 1.0 1.0
2173043403 FLOW qin FLOW 1.0 1.0
2173043404 FLOW qin FLOW 1.0 1.0
2173043405 FLOW qin FLOW 1.0 1.0
2173043406 FLOW qin FLOW 1.0 1.0
2173043504 FLOW qin FLOW 1.0 1.0
2173043506 FLOW qin FLOW 1.0 1.0
2173043601 FLOW qin FLOW 1.0 1.0
2173043901 FLOW qin FLOW 1.0 1.0
2173043902 FLOW qin FLOW 1.0 1.0
2173044101 FLOW qin FLOW 1.0 1.0
2173044102 FLOW qin FLOW 1.0 1.0
2173044103 FLOW qin FLOW 1.0 1.0
2173044106 FLOW qin FLOW 1.0 1.0
2173044201 FLOW qin FLOW 1.0 1.0
2173044202 FLOW qin FLOW 1.0 1.0
2173044203 FLOW qin FLOW 1.0 1.0
2173044204 FLOW qin FLOW 1.0 1.0
2173044301 FLOW qin FLOW 1.0 1.0
2173044302 FLOW qin FLOW 1.0 1.0
2173044303 FLOW qin FLOW 1.0 1.0
2173044304 FLOW qin FLOW 1.0 1.0
2173044305 FLOW qin FLOW 1.0 1.0
2173044306 FLOW qin FLOW 1.0 1.0
2173044401 FLOW qin FLOW 1.0 1.0
2173044402 FLOW qin FLOW 1.0 1.0
2173044403 FLOW qin FLOW 1.0 1.0
2173044404 FLOW qin FLOW 1.0 1.0
2173044405 FLOW qin FLOW 1.0 1.0
2173044406 FLOW qin FLOW 1.0 1.0
2173044502 FLOW qin FLOW 1.0 1.0
2173044504 FLOW qin FLOW 1.0 1.0
2173044505 FLOW qin FLOW 1.0 1.0
2173044506 FLOW qin FLOW 1.0 1.0
2173044507 FLOW qin FLOW 1.0 1.0
2173044601 FLOW qin FLOW 1.0 1.0
2173044602 FLOW qin FLOW 1.0 1.0
2173045101 FLOW qin FLOW 1.0 1.0
2173045102 FLOW qin FLOW 1.0 1.0
2173045103 FLOW qin FLOW 1.0 1.0
2173045104 FLOW qin FLOW 1.0 1.0
2173045105 FLOW qin FLOW 1.0 1.0
2173045201 FLOW qin FLOW 1.0 1.0
2173045202 FLOW qin FLOW 1.0 1.0
2173045203 FLOW qin FLOW 1.0 1.0
2173045204 FLOW qin FLOW 1.0 1.0
2173045205 FLOW qin FLOW 1.0 1.0
2173045210 FLOW qin FLOW 1.0 1.0
2173045301 FLOW qin FLOW 1.0 1.0
2173045302 FLOW qin FLOW 1.0 1.0
2173045303 FLOW qin FLOW 1.0 1.0
2173045304 FLOW qin FLOW 1.0 1.0
2173045305 FLOW qin FLOW 1.0 1.0
2173045306 FLOW qin FLOW 1.0 1.0
2173045401 FLOW qin FLOW 1.0 1.0
2173045402 FLOW qin FLOW 1.0 1.0
2173045501 FLOW qin FLOW 1.0 1.0
2173045502 FLOW qin FLOW 1.0 1.0
2173045503 FLOW qin FLOW 1.0 1.0
2173045504 FLOW qin FLOW 1.0 1.0
2173045505 FLOW qin FLOW 1.0 1.0
2173045603 FLOW qin FLOW 1.0 1.0
2173045604 FLOW qin FLOW 1.0 1.0
2173045901 FLOW qin FLOW 1.0 1.0
2173046104 FLOW qin FLOW 1.0 1.0
2173046106 FLOW qin FLOW 1.0 1.0
2173046203 FLOW qin FLOW 1.0 1.0
2173046301 FLOW qin FLOW 1.0 1.0
2173046401 FLOW qin FLOW 1.0 1.0
2173046402 FLOW qin FLOW 1.0 1.0
2173046403 FLOW qin FLOW 1.0 1.0
2173046404 FLOW qin FLOW 1.0 1.0
2173046405 FLOW qin FLOW 1.0 1.0
2173046406 FLOW qin FLOW 1.0 1.0
2173046409 FLOW qin FLOW 1.0 1.0
2173046410 FLOW qin FLOW 1.0 1.0
2173046412 FLOW qin FLOW 1.0 1.0
2173046413 FLOW qin FLOW 1.0 1.0
2173046414 FLOW qin FLOW 1.0 1.0
2173046501 FLOW qin FLOW 1.0 1.0
2173046601 FLOW qin FLOW 1.0 1.0
2173046602 FLOW qin FLOW 1.0 1.0
2173046603 FLOW qin FLOW 1.0 1.0
2173046707 FLOW qin FLOW 1.0 1.0
2173046709 FLOW qin FLOW 1.0 1.0
2173046901 FLOW qin FLOW 1.0 1.0
2173046902 FLOW qin FLOW 1.0 1.0
2173047001 FLOW qin FLOW 1.0 1.0
2173047002 FLOW qin FLOW 1.0 1.0
2173047003 FLOW qin FLOW 1.0 1.0
2173047004 FLOW qin FLOW 1.0 1.0
2173047005 FLOW qin FLOW 1.0 1.0
2173047101 FLOW qin FLOW 1.0 1.0
2173047102 FLOW qin FLOW 1.0 1.0
2173047103 FLOW qin FLOW 1.0 1.0
2173047104 FLOW qin FLOW 1.0 1.0
2173047105 FLOW qin FLOW 1.0 1.0
2173047301 FLOW qin FLOW 1.0 1.0
2173047302 FLOW qin FLOW 1.0 1.0
2173047402 FLOW qin FLOW 1.0 1.0
2173047501 FLOW qin FLOW 1.0 1.0
2173047502 FLOW qin FLOW 1.0 1.0
2173047503 FLOW qin FLOW 1.0 1.0
2173047504 FLOW qin FLOW 1.0 1.0
2173047505 FLOW qin FLOW 1.0 1.0
2173047506 FLOW qin FLOW 1.0 1.0
2173047601 FLOW qin FLOW 1.0 1.0
2173047602 FLOW qin FLOW 1.0 1.0
2173047603 FLOW qin FLOW 1.0 1.0
2173047604 FLOW qin FLOW 1.0 1.0
2173047701 FLOW qin FLOW 1.0 1.0
2173047702 FLOW qin FLOW 1.0 1.0
2173047703 FLOW qin FLOW 1.0 1.0
2173047704 FLOW qin FLOW 1.0 1.0
2173047801 FLOW qin FLOW 1.0 1.0
2173047802 FLOW qin FLOW 1.0 1.0
2173047803 FLOW qin FLOW 1.0 1.0
2173047804 FLOW qin FLOW 1.0 1.0
2173047805 FLOW qin FLOW 1.0 1.0
2173047902 FLOW qin FLOW 1.0 1.0
2173047903 FLOW qin FLOW 1.0 1.0
2173047904 FLOW qin FLOW 1.0 1.0
2173048001 FLOW qin FLOW 1.0 1.0
2173048002 FLOW qin FLOW 1.0 1.0
2173048003 FLOW qin FLOW 1.0 1.0
2173048004 FLOW qin FLOW 1.0 1.0
2173048005 FLOW qin FLOW 1.0 1.0
2173048006 FLOW qin FLOW 1.0 1.0
2173048007 FLOW qin FLOW 1.0 1.0
2173048008 FLOW qin FLOW 1.0 1.0
2173048101 FLOW qin FLOW 1.0 1.0
2173048102 FLOW qin FLOW 1.0 1.0
2173048103 FLOW qin FLOW 1.0 1.0
2173048104 FLOW qin FLOW 1.0 1.0
2173048106 FLOW qin FLOW 1.0 1.0
2173048201 FLOW qin FLOW 1.0 1.0
2173048204 FLOW qin FLOW 1.0 1.0
2173048303 FLOW qin FLOW 1.0 1.0
2173048305 FLOW qin FLOW 1.0 1.0
2173048403 FLOW qin FLOW 1.0 1.0
2173048503 FLOW qin FLOW 1.0 1.0
2173048601 FLOW qin FLOW 1.0 1.0
2173048602 FLOW qin FLOW 1.0 1.0
2173048603 FLOW qin FLOW 1.0 1.0
2173048604 FLOW qin FLOW 1.0 1.0
2173048701 FLOW qin FLOW 1.0 1.0
2173048702 FLOW qin FLOW 1.0 1.0
2173048703 FLOW qin FLOW 1.0 1.0
2173048704 FLOW qin FLOW 1.0 1.0
2173048705 FLOW qin FLOW 1.0 1.0
2173048801 FLOW qin FLOW 1.0 1.0
2173048802 FLOW qin FLOW 1.0 1.0
2173048803 FLOW qin FLOW 1.0 1.0
2173048901 FLOW qin FLOW 1.0 1.0
2173048902 FLOW qin FLOW 1.0 1.0
2173048903 FLOW qin FLOW 1.0 1.0
2173048904 FLOW qin FLOW 1.0 1.0
2173049001 FLOW qin FLOW 1.0 1.0
2173049002 FLOW qin FLOW 1.0 1.0
2173049201 FLOW qin FLOW 1.0 1.0
2173049202 FLOW qin FLOW 1.0 1.0
2173049203 FLOW qin FLOW 1.0 1.0
2173049204 FLOW qin FLOW 1.0 1.0
2173049205 FLOW qin FLOW 1.0 1.0
2173049206 FLOW qin FLOW 1.0 1.0
2173049207 FLOW qin FLOW 1.0 1.0
2173049301 FLOW qin FLOW 1.0 1.0
2173049302 FLOW qin FLOW 1.0 1.0
2173049303 FLOW qin FLOW 1.0 1.0
2173049304 FLOW qin FLOW 1.0 1.0
2173049401 FLOW qin FLOW 1.0 1.0
2173049402 FLOW qin FLOW 1.0 1.0
2173049403 FLOW qin FLOW 1.0 1.0
2173049404 FLOW qin FLOW 1.0 1.0
2173049405 FLOW qin FLOW 1.0 1.0
2173049501 FLOW qin FLOW 1.0 1.0
2173049601 FLOW qin FLOW 1.0 1.0
2173049602 FLOW qin FLOW 1.0 1.0
2173049603 FLOW qin FLOW 1.0 1.0
2173049701 FLOW qin FLOW 1.0 1.0
2173049702 FLOW qin FLOW 1.0 1.0
2173049801 FLOW qin FLOW 1.0 1.0
2173049802 FLOW qin FLOW 1.0 1.0
2173049803 FLOW qin FLOW 1.0 1.0
2173049804 FLOW qin FLOW 1.0 1.0
2173049805 FLOW qin FLOW 1.0 1.0
2173049806 FLOW qin FLOW 1.0 1.0
2173049807 FLOW qin FLOW 1.0 1.0
2173049808 FLOW qin FLOW 1.0 1.0
2173049901 FLOW qin FLOW 1.0 1.0
2173049902 FLOW qin FLOW 1.0 1.0
2173049903 FLOW qin FLOW 1.0 1.0
2173049904 FLOW qin FLOW 1.0 1.0
2173049905 FLOW qin FLOW 1.0 1.0
2173050301 FLOW qin FLOW 1.0 1.0
2173050301_ FLOW qin FLOW 1.0 1.0
2173050302 FLOW qin FLOW 1.0 1.0
2173050401 FLOW qin FLOW 1.0 1.0
2173050601 FLOW qin FLOW 1.0 1.0
2173051401 FLOW qin FLOW 1.0 1.0
2173051402 FLOW qin FLOW 1.0 1.0
2173051501 FLOW qin FLOW 1.0 1.0
2173051502 FLOW qin FLOW 1.0 1.0
2173052501 FLOW qin FLOW 1.0 1.0
2173052502 FLOW qin FLOW 1.0 1.0
2173053001 FLOW qin FLOW 1.0 1.0
2173053002 FLOW qin FLOW 1.0 1.0
2173053101 FLOW qin FLOW 1.0 1.0
2173053201 FLOW qin FLOW 1.0 1.0
2173053202 FLOW qin FLOW 1.0 1.0
2173053203 FLOW qin FLOW 1.0 1.0
2173053301 FLOW qin FLOW 1.0 1.0
2173053401 FLOW qin FLOW 1.0 1.0
2173053402 FLOW qin FLOW 1.0 1.0
2173053403 FLOW qin FLOW 1.0 1.0
2173054101 FLOW qin FLOW 1.0 1.0
2173054201 FLOW qin FLOW 1.0 1.0
2173054202 FLOW qin FLOW 1.0 1.0
2173054301 FLOW qin FLOW 1.0 1.0
2173054401 FLOW qin FLOW 1.0 1.0
2173054505 FLOW qin FLOW 1.0 1.0
2173054506 FLOW qin FLOW 1.0 1.0
2173054507 FLOW qin FLOW 1.0 1.0
2173054508 FLOW qin FLOW 1.0 1.0
2173054509 FLOW qin FLOW 1.0 1.0
2173054510 FLOW qin FLOW 1.0 1.0
2173054511 FLOW qin FLOW 1.0 1.0
2173054512 FLOW qin FLOW 1.0 1.0
2173054513 FLOW qin FLOW 1.0 1.0
2173054601 FLOW qin FLOW 1.0 1.0
2173054602 FLOW qin FLOW 1.0 1.0
2173054603 FLOW qin FLOW 1.0 1.0
2173054604 FLOW qin FLOW 1.0 1.0
2173054605 FLOW qin FLOW 1.0 1.0
2173054606 FLOW qin FLOW 1.0 1.0
2173054607 FLOW qin FLOW 1.0 1.0
2173054608 FLOW qin FLOW 1.0 1.0
2173054609 FLOW qin FLOW 1.0 1.0
2173054610 FLOW qin FLOW 1.0 1.0
2173054611 FLOW qin FLOW 1.0 1.0
2173055401 FLOW qin FLOW 1.0 1.0
2173055503 FLOW qin FLOW 1.0 1.0
2173055505 FLOW qin FLOW 1.0 1.0
2173055506 FLOW qin FLOW 1.0 1.0
2173055507 FLOW qin FLOW 1.0 1.0
2173055601 FLOW qin FLOW 1.0 1.0
2173055602 FLOW qin FLOW 1.0 1.0
2173055603 FLOW qin FLOW 1.0 1.0
2173055604 FLOW qin FLOW 1.0 1.0
2173055605 FLOW qin FLOW 1.0 1.0
2173055606 FLOW qin FLOW 1.0 1.0
2173056601 FLOW qin FLOW 1.0 1.0
2173056602 FLOW qin FLOW 1.0 1.0
2173056701 FLOW qin FLOW 1.0 1.0
2173057001 FLOW qin FLOW 1.0 1.0
2173057005 FLOW qin FLOW 1.0 1.0
2173058001 FLOW qin FLOW 1.0 1.0
2173058003 FLOW qin FLOW 1.0 1.0
2173058005 FLOW qin FLOW 1.0 1.0
2173058007 FLOW qin FLOW 1.0 1.0
2173058101 FLOW qin FLOW 1.0 1.0
2173058102 FLOW qin FLOW 1.0 1.0
2173058103 FLOW qin FLOW 1.0 1.0
2173058106 FLOW qin FLOW 1.0 1.0
2173058203 FLOW qin FLOW 1.0 1.0
2173058205 FLOW qin FLOW 1.0 1.0
2173058206 FLOW qin FLOW 1.0 1.0
2173058301 FLOW qin FLOW 1.0 1.0
2173058303 FLOW qin FLOW 1.0 1.0
2173058305 FLOW qin FLOW 1.0 1.0
2173058306 FLOW qin FLOW 1.0 1.0
2173058308 FLOW qin FLOW 1.0 1.0
2173058401 FLOW qin FLOW 1.0 1.0
2173058402 FLOW qin FLOW 1.0 1.0
2173059001 FLOW qin FLOW 1.0 1.0
2173059002 FLOW qin FLOW 1.0 1.0
2173059003 FLOW qin FLOW 1.0 1.0
2173059004 FLOW qin FLOW 1.0 1.0
2173059005 FLOW qin FLOW 1.0 1.0
2173059006 FLOW qin FLOW 1.0 1.0
2173059007 FLOW qin FLOW 1.0 1.0
2173059103 FLOW qin FLOW 1.0 1.0
2173059104 FLOW qin FLOW 1.0 1.0
2173059105 FLOW qin FLOW 1.0 1.0
2173059201 FLOW qin FLOW 1.0 1.0
2173059202 FLOW qin FLOW 1.0 1.0
2173059204 FLOW qin FLOW 1.0 1.0
2173059301 FLOW qin FLOW 1.0 1.0
2173059401 FLOW qin FLOW 1.0 1.0
2173059402 FLOW qin FLOW 1.0 1.0
2173059403 FLOW qin FLOW 1.0 1.0
2173059404 FLOW qin FLOW 1.0 1.0
2173059405 FLOW qin FLOW 1.0 1.0
2173059406 FLOW qin FLOW 1.0 1.0
2173059407 FLOW qin FLOW 1.0 1.0
2173059408 FLOW qin FLOW 1.0 1.0
2173059501 FLOW qin FLOW 1.0 1.0
2173059502 FLOW qin FLOW 1.0 1.0
2173059503 FLOW qin FLOW 1.0 1.0
2173059504 FLOW qin FLOW 1.0 1.0
2173059505 FLOW qin FLOW 1.0 1.0
2173059601 FLOW qin FLOW 1.0 1.0
2174031101 FLOW qin FLOW 1.0 1.0
2174031203 FLOW qin FLOW 1.0 1.0
2174031306 FLOW qin FLOW 1.0 1.0
2174031405 FLOW qin FLOW 1.0 1.0
2174031701 FLOW qin FLOW 1.0 1.0
2174031704 FLOW qin FLOW 1.0 1.0
2174032201 FLOW qin FLOW 1.0 1.0
2174032202 FLOW qin FLOW 1.0 1.0
2174032203 FLOW qin FLOW 1.0 1.0
2174032303 FLOW qin FLOW 1.0 1.0
2174032304 FLOW qin FLOW 1.0 1.0
2174032305 FLOW qin FLOW 1.0 1.0
2174032306 FLOW qin FLOW 1.0 1.0
2174032307 FLOW qin FLOW 1.0 1.0
2174032601 FLOW qin FLOW 1.0 1.0
2174033201 FLOW qin FLOW 1.0 1.0
2174033202 FLOW qin FLOW 1.0 1.0
2174033203 FLOW qin FLOW 1.0 1.0
2174033204 FLOW qin FLOW 1.0 1.0
2174033205 FLOW qin FLOW 1.0 1.0
2174033206 FLOW qin FLOW 1.0 1.0
2174033207 FLOW qin FLOW 1.0 1.0
2174033301 FLOW qin FLOW 1.0 1.0
2174033302 FLOW qin FLOW 1.0 1.0
2174033304 FLOW qin FLOW 1.0 1.0
2174033306 FLOW qin FLOW 1.0 1.0
2174033308 FLOW qin FLOW 1.0 1.0
2174033309 FLOW qin FLOW 1.0 1.0
2174033310 FLOW qin FLOW 1.0 1.0
2174040001 FLOW qin FLOW 1.0 1.0
2174040102 FLOW qin FLOW 1.0 1.0
2174040103 FLOW qin FLOW 1.0 1.0
2174040104 FLOW qin FLOW 1.0 1.0
2174040105 FLOW qin FLOW 1.0 1.0
2174040106 FLOW qin FLOW 1.0 1.0
2174040107 FLOW qin FLOW 1.0 1.0
2174040201 FLOW qin FLOW 1.0 1.0
2174040202 FLOW qin FLOW 1.0 1.0
2174040203 FLOW qin FLOW 1.0 1.0
2174040204 FLOW qin FLOW 1.0 1.0
2174040301 FLOW qin FLOW 1.0 1.0
2174040302 FLOW qin FLOW 1.0 1.0
2174040303 FLOW qin FLOW 1.0 1.0
2174040401 FLOW qin FLOW 1.0 1.0
2174040402 FLOW qin FLOW 1.0 1.0
2174040403 FLOW qin FLOW 1.0 1.0
2174040404 FLOW qin FLOW 1.0 1.0
2174040405 FLOW qin FLOW 1.0 1.0
2174040502 FLOW qin FLOW 1.0 1.0
2174040601 FLOW qin FLOW 1.0 1.0
2174040602 FLOW qin FLOW 1.0 1.0
2174040603 FLOW qin FLOW 1.0 1.0
2174040701 FLOW qin FLOW 1.0 1.0
2174040702 FLOW qin FLOW 1.0 1.0
2174040703 FLOW qin FLOW 1.0 1.0
2174040704 FLOW qin FLOW 1.0 1.0
2174040705 FLOW qin FLOW 1.0 1.0
2174040706 FLOW qin FLOW 1.0 1.0
2174040901 FLOW qin FLOW 1.0 1.0
2174040902 FLOW qin FLOW 1.0 1.0
2174040904 FLOW qin FLOW 1.0 1.0
2174040905 FLOW qin FLOW 1.0 1.0
2174040906 FLOW qin FLOW 1.0 1.0
2174040907 FLOW qin FLOW 1.0 1.0
2174040908 FLOW qin FLOW 1.0 1.0
2174041101 FLOW qin FLOW 1.0 1.0
2174041102 FLOW qin FLOW 1.0 1.0
2174041103 FLOW qin FLOW 1.0 1.0
2174041104 FLOW qin FLOW 1.0 1.0
2174041105 FLOW qin FLOW 1.0 1.0
2174041201 FLOW qin FLOW 1.0 1.0
2174041202 FLOW qin FLOW 1.0 1.0
2174041203 FLOW qin FLOW 1.0 1.0
2174041204 FLOW qin FLOW 1.0 1.0
2174041205 FLOW qin FLOW 1.0 1.0
2174041206 FLOW qin FLOW 1.0 1.0
2174041207 FLOW qin FLOW 1.0 1.0
2174041208 FLOW qin FLOW 1.0 1.0
2174041301 FLOW qin FLOW 1.0 1.0
2174041302 FLOW qin FLOW 1.0 1.0
2174041303 FLOW qin FLOW 1.0 1.0
2174041304 FLOW qin FLOW 1.0 1.0
2174041305 FLOW qin FLOW 1.0 1.0
2174041401 FLOW qin FLOW 1.0 1.0
2174041402 FLOW qin FLOW 1.0 1.0
2174041403 FLOW qin FLOW 1.0 1.0
2174041404 FLOW qin FLOW 1.0 1.0
2174041405 FLOW qin FLOW 1.0 1.0
2174041501 FLOW qin FLOW 1.0 1.0
2174041502 FLOW qin FLOW 1.0 1.0
2174041503 FLOW qin FLOW 1.0 1.0
2174041504 FLOW qin FLOW 1.0 1.0
2174041601 FLOW qin FLOW 1.0 1.0
2174041602 FLOW qin FLOW 1.0 1.0
2174041603 FLOW qin FLOW 1.0 1.0
2174041704 FLOW qin FLOW 1.0 1.0
2174041705 FLOW qin FLOW 1.0 1.0
2174041801 FLOW qin FLOW 1.0 1.0
2174041803 FLOW qin FLOW 1.0 1.0
2174041806 FLOW qin FLOW 1.0 1.0
2174041807 FLOW qin FLOW 1.0 1.0
2174041901 FLOW qin FLOW 1.0 1.0
2174042201 FLOW qin FLOW 1.0 1.0
2174042202 FLOW qin FLOW 1.0 1.0
2174042203 FLOW qin FLOW 1.0 1.0
2174042204 FLOW qin FLOW 1.0 1.0
2174042301 FLOW qin FLOW 1.0 1.0
2174042302 FLOW qin FLOW 1.0 1.0
2174042303 FLOW qin FLOW 1.0 1.0
2174042401 FLOW qin FLOW 1.0 1.0
2174042402 FLOW qin FLOW 1.0 1.0
2174042403 FLOW qin FLOW 1.0 1.0
2174042404 FLOW qin FLOW 1.0 1.0
2174042501 FLOW qin FLOW 1.0 1.0
2174042502 FLOW qin FLOW 1.0 1.0
2174042604 FLOW qin FLOW 1.0 1.0
2174042605 FLOW qin FLOW 1.0 1.0
2174042704 FLOW qin FLOW 1.0 1.0
2174042901 FLOW qin FLOW 1.0 1.0
2174042902 FLOW qin FLOW 1.0 1.0
2174042903 FLOW qin FLOW 1.0 1.0
2174042904 FLOW qin FLOW 1.0 1.0
2174042905 FLOW qin FLOW 1.0 1.0
2174042906 FLOW qin FLOW 1.0 1.0
2174042907 FLOW qin FLOW 1.0 1.0
2174043203 FLOW qin FLOW 1.0 1.0
2174043301 FLOW qin FLOW 1.0 1.0
2174043302 FLOW qin FLOW 1.0 1.0
2174043303 FLOW qin FLOW 1.0 1.0
2174043401 FLOW qin FLOW 1.0 1.0
2174043402 FLOW qin FLOW 1.0 1.0
2174043403 FLOW qin FLOW 1.0 1.0
2174043501 FLOW qin FLOW 1.0 1.0
2174043502 FLOW qin FLOW 1.0 1.0
2174043701 FLOW qin FLOW 1.0 1.0
2174043801 FLOW qin FLOW 1.0 1.0
2174043802 FLOW qin FLOW 1.0 1.0
2174043803 FLOW qin FLOW 1.0 1.0
2174043901 FLOW qin FLOW 1.0 1.0
2174043902 FLOW qin FLOW 1.0 1.0
2174043903 FLOW qin FLOW 1.0 1.0
2174043904 FLOW qin FLOW 1.0 1.0
2174043905 FLOW qin FLOW 1.0 1.0
2174050001 FLOW qin FLOW 1.0 1.0
2174050002 FLOW qin FLOW 1.0 1.0
2174050003 FLOW qin FLOW 1.0 1.0
2174050004 FLOW qin FLOW 1.0 1.0
2174050101 FLOW qin FLOW 1.0 1.0
2174050102 FLOW qin FLOW 1.0 1.0
2174050103 FLOW qin FLOW 1.0 1.0
2174050104 FLOW qin FLOW 1.0 1.0
2174050105 FLOW qin FLOW 1.0 1.0
2174050106 FLOW qin FLOW 1.0 1.0
2174050202 FLOW qin FLOW 1.0 1.0
2174050203 FLOW qin FLOW 1.0 1.0
2174050204 FLOW qin FLOW 1.0 1.0
2174050205 FLOW qin FLOW 1.0 1.0
2174050304 FLOW qin FLOW 1.0 1.0
2174050305 FLOW qin FLOW 1.0 1.0
2174050401 FLOW qin FLOW 1.0 1.0
2174050405 FLOW qin FLOW 1.0 1.0
2174050501 FLOW qin FLOW 1.0 1.0
2174050502 FLOW qin FLOW 1.0 1.0
2174050503 FLOW qin FLOW 1.0 1.0
2174050504 FLOW qin FLOW 1.0 1.0
2174050505 FLOW qin FLOW 1.0 1.0
2174050506 FLOW qin FLOW 1.0 1.0
2174050507 FLOW qin FLOW 1.0 1.0
2174050508 FLOW qin FLOW 1.0 1.0
2174050509 FLOW qin FLOW 1.0 1.0
2174050510 FLOW qin FLOW 1.0 1.0
2174050511 FLOW qin FLOW 1.0 1.0
2174050601 FLOW qin FLOW 1.0 1.0
2174050602 FLOW qin FLOW 1.0 1.0
2174050603 FLOW qin FLOW 1.0 1.0
2174050604 FLOW qin FLOW 1.0 1.0
2174050605 FLOW qin FLOW 1.0 1.0
2174050606 FLOW qin FLOW 1.0 1.0
2174050607 FLOW qin FLOW 1.0 1.0
2174050608 FLOW qin FLOW 1.0 1.0
2174050702 FLOW qin FLOW 1.0 1.0
2174051001 FLOW qin FLOW 1.0 1.0
2174051002 FLOW qin FLOW 1.0 1.0
2174051003 FLOW qin FLOW 1.0 1.0
2174051004 FLOW qin FLOW 1.0 1.0
2174051005 FLOW qin FLOW 1.0 1.0
2174051101 FLOW qin FLOW 1.0 1.0
2174051102 FLOW qin FLOW 1.0 1.0
2174051201 FLOW qin FLOW 1.0 1.0
2174051202 FLOW qin FLOW 1.0 1.0
2174051203 FLOW qin FLOW 1.0 1.0
2174051301 FLOW qin FLOW 1.0 1.0
2174051302 FLOW qin FLOW 1.0 1.0
2174051303 FLOW qin FLOW 1.0 1.0
2174051304 FLOW qin FLOW 1.0 1.0
2174051402 FLOW qin FLOW 1.0 1.0
2174051403 FLOW qin FLOW 1.0 1.0
2174051601 FLOW qin FLOW 1.0 1.0
2174051602 FLOW qin FLOW 1.0 1.0
2174051603 FLOW qin FLOW 1.0 1.0
2174051604 FLOW qin FLOW 1.0 1.0
2174051701 FLOW qin FLOW 1.0 1.0
2174052001 FLOW qin FLOW 1.0 1.0
2174052002 FLOW qin FLOW 1.0 1.0
2174052003 FLOW qin FLOW 1.0 1.0
2174052004 FLOW qin FLOW 1.0 1.0
2174052101 FLOW qin FLOW 1.0 1.0
2174052101_ FLOW qin FLOW 1.0 1.0
2174052102 FLOW qin FLOW 1.0 1.0
2174052103 FLOW qin FLOW 1.0 1.0
2174052201 FLOW qin FLOW 1.0 1.0
2174052202 FLOW qin FLOW 1.0 1.0
2174052203 FLOW qin FLOW 1.0 1.0
2174052204 FLOW qin FLOW 1.0 1.0
2174052205 FLOW qin FLOW 1.0 1.0
2174052301 FLOW qin FLOW 1.0 1.0
2174052302 FLOW qin FLOW 1.0 1.0
2174052303 FLOW qin FLOW 1.0 1.0
2174052402 FLOW qin FLOW 1.0 1.0
2174052403 FLOW qin FLOW 1.0 1.0
2174052404 FLOW qin FLOW 1.0 1.0
2174052405 FLOW qin FLOW 1.0 1.0
2174052406 FLOW qin FLOW 1.0 1.0
2174052407 FLOW qin FLOW 1.0 1.0
2174052408 FLOW qin FLOW 1.0 1.0
2174052501_ FLOW qin FLOW 1.0 1.0
2174052502_ FLOW qin FLOW 1.0 1.0
2174052503 FLOW qin FLOW 1.0 1.0
2174052504 FLOW qin FLOW 1.0 1.0
2174052505 FLOW qin FLOW 1.0 1.0
2174052601 FLOW qin FLOW 1.0 1.0
2174052601_ FLOW qin FLOW 1.0 1.0
2174052602 FLOW qin FLOW 1.0 1.0
2174053001 FLOW qin FLOW 1.0 1.0
2174053001_ FLOW qin FLOW 1.0 1.0
2174053002 FLOW qin FLOW 1.0 1.0
2174053002_ FLOW qin FLOW 1.0 1.0
2174053101 FLOW qin FLOW 1.0 1.0
2174053102 FLOW qin FLOW 1.0 1.0
2174053201 FLOW qin FLOW 1.0 1.0
2174053202 FLOW qin FLOW 1.0 1.0
2174053203 FLOW qin FLOW 1.0 1.0
2174053204 FLOW qin FLOW 1.0 1.0
2174053205 FLOW qin FLOW 1.0 1.0
2174053206 FLOW qin FLOW 1.0 1.0
2174053207 FLOW qin FLOW 1.0 1.0
2174053301 FLOW qin FLOW 1.0 1.0
2174053301_ FLOW qin FLOW 1.0 1.0
2174053302 FLOW qin FLOW 1.0 1.0
2174053303 FLOW qin FLOW 1.0 1.0
2174053304 FLOW qin FLOW 1.0 1.0
2174053401 FLOW qin FLOW 1.0 1.0
2174053401_ FLOW qin FLOW 1.0 1.0
2174053402 FLOW qin FLOW 1.0 1.0
2174053402_ FLOW qin FLOW 1.0 1.0
2174053403 FLOW qin FLOW 1.0 1.0
2174053403_ FLOW qin FLOW 1.0 1.0
2174053501 FLOW qin FLOW 1.0 1.0
2174053501_ FLOW qin FLOW 1.0 1.0
2174053502 FLOW qin FLOW 1.0 1.0
2174053503 FLOW qin FLOW 1.0 1.0
2174053504 FLOW qin FLOW 1.0 1.0
2174053505 FLOW qin FLOW 1.0 1.0
2174053506 FLOW qin FLOW 1.0 1.0
2174053507 FLOW qin FLOW 1.0 1.0
2174053601 FLOW qin FLOW 1.0 1.0
2174053602 FLOW qin FLOW 1.0 1.0
2174053603 FLOW qin FLOW 1.0 1.0
2174053604 FLOW qin FLOW 1.0 1.0
2174053605 FLOW qin FLOW 1.0 1.0
2174053606 FLOW qin FLOW 1.0 1.0

[REPORT]
INPUT NO
CONTROLS NO
SUBCATCHMENTS NONE
NODES NONE
LINKS NONE

[COORDINATES]
2171039205 271921.60 2103253.20
2171039208 271933.15 2103269.06
2171039210 271949.64 2103239.14
2171039211 271952.58 2103256.15
2171039212 271959.00 2103264.00
2171039213 271969.17 2103222.91
2171039214 271969.36 2103296.27
2171039215 271971.00 2103276.00
2171039216 271973.00 2103279.00
2171039217 271976.40 2103217.30
2171039218 271982.00 2103287.00
2171039301 271963.20 2103300.53
2171049801 271912.44 2104877.39
2171049802 271968.80 2104834.60
2171049803 271974.00 2104828.00
2171049804 271988.00 2104868.00
2172030101 272011.14 2103194.45
2172030103 272044.58 2103190.04
2172030104 272051.00 2103166.50
2172030105 272061.00 2103180.00
2172030106 272068.44 2103152.94
2172030107 272077.49 2103167.67
2172030109 272095.90 2103156.27
2172030201 272021.77 2103205.83
2172030301 272000.59 2103340.28
2172030302 272004.14 2103334.37
2172030303 272025.67 2103370.57
2172030304 272028.98 2103363.47
2172030305 272051.70 2103398.01
2172030306 272055.95 2103392.34
2172030402 272077.49 2103424.75
2172030403 272080.56 2103420.49
2172030502 272024.00 2103547.00
2172030505 272054.00 2103572.00
2172030506 272076.00 2103593.00
2172030601 272096.00 2103611.00
2172030903 272062.10 2103998.60
2172031301 272185.00 2103387.00
2172031302 272197.00 2103377.00
2172031401 272104.50 2103454.10
2172031402 272107.54 2103450.30
2172031403 272116.53 2103465.45
2172031404 272118.42 2103461.19
2172031405 272140.00 2103438.00
2172031406 272151.00 2103429.00
2172031407 272155.33 2103499.28
2172031408 272165.00 2103413.00
2172031409 272173.00 2103403.00
2172031503 272152.02 2103503.31
2172031505 272181.90 2103536.60
2172031506 272187.21 2103532.57
2172031601 272102.00 2103650.00
2172031602 272117.00 2103629.00
2172031604 272176.00 2103674.00
2172031605 272196.00 2103692.00
2172031801 272126.00 2103887.00
2172031802 272155.00 2103863.00
2172031804 272182.00 2103841.00
2172031901 272105.00 2103922.00
2172031902 272114.00 2103903.00
2172032301 272217.00 2103357.00
2172032302 272231.00 2103345.00
2172032303 272244.00 2103327.00
2172032501 272212.59 2103567.90
2172032502 272217.56 2103564.35
2172032503 272234.12 2103589.19
2172032504 272236.25 2103583.04
2172032601 272255.65 2103613.56
2172032602 272258.73 2103607.41
2172032603 272278.84 2103639.12
2172032604 272282.39 2103633.91
2172032605 272295.88 2103656.86
2172032606 272298.72 2103652.84
2172032701 272212.00 2103708.00
2172032702 272236.00 2103728.00
2172032703 272240.00 2103775.00
2172032704 272252.00 2103742.00
2172032705 272260.00 2103750.00
2172032706 272266.00 2103755.00
2172032707 272271.00 2103739.00
2172032708 272280.00 2103769.00
2172032709 272289.00 2103723.00
2172032710 272298.00 2103785.00
2172032803 272220.00 2103801.00
2172033601 272307.94 2103669.40
2172033602 272310.78 2103664.20
2172033603 272324.27 2103687.39
2172033604 272326.64 2103683.13
2172033701 272303.00 2103707.00
2172033702 272355.74 2103719.09
2172033703 272358.58 2103714.60
2172033704 272396.20 2103761.92
2172033705 272398.80 2103758.61
2172033801 272319.00 2103806.00
2172034701 272421.52 2103789.84
2172034702 272425.54 2103784.87
2172034801 272443.52 2103811.84
2172034802 272446.60 2103808.29
2172034803 272460.79 2103831.01
2172034804 272463.63 2103826.28
2172034805 272479.38 2103852.46
2172034806 272482.67 2103847.75
2172034807 272492.60 2103868.00
2172035701 272544.53 2103734.16
2172035801 272502.50 2103864.20
2172035901 272535.00 2103913.00
2172035902 272542.00 2103908.00
2172035903 272563.21 2103941.47
2172035904 272566.98 2103937.23
2172035905 272586.28 2103968.78
2172035906 272590.05 2103963.60
2172036601 272668.02 2103649.77
2172036602 272684.00 2103625.00
2172036603 272697.59 2103605.76
2172037001 272736.40 2103084.50
2172037003 272741.40 2103006.50
2172037104 272797.75 2103147.66
2172037202 272787.00 2103211.00
2172037204 272797.00 2103273.40
2172037501 272730.17 2103592.38
2172037502 272765.36 2103576.01
2172037503 272792.30 2103564.57
2172037701 272791.00 2103760.00
2172038101 272804.24 2103166.33
2172038102 272806.77 2103173.45
2172038103 272814.84 2103196.87
2172038104 272891.00 2103185.00
2172038201 272821.00 2103219.00
2172038202 272856.30 2103272.10
2172038203 272859.00 2103201.00
2172038302 272816.00 2103369.00
2172038303 272822.00 2103392.00
2172038306 272879.00 2103301.70
2172038308 272887.60 2103317.10
2172038403 272826.00 2103411.00
2172038404 272830.00 2103430.00
2172038406 272838.00 2103459.00
2172038407 272843.00 2103482.00
2172038501 272816.22 2103554.37
2172038502 272841.60 2103547.80
2172038503 272849.30 2103561.00
2172038505 272855.67 2103533.77
2172038506 272856.60 2103582.70
2172038509 272862.00 2103564.00
2172038512 272870.74 2103564.44
2172038513 272881.72 2103561.69
2172038514 272897.83 2103554.37
2172038602 272874.30 2103674.60
2172038701 272811.00 2103752.00
2172038702 272839.00 2103743.00
2172038703 272862.00 2103734.00
2172038704 272885.00 2103726.00
2172038705 272897.00 2103721.00
2172039101 272921.00 2103185.00
2172039102 272947.00 2103165.00
2172039104 272985.00 2103124.00
2172039202 272947.00 2103211.00
2172039203 272949.00 2103292.00
2172039204 272961.00 2103226.00
2172039205 272962.00 2103282.00
2172039206 272983.00 2103264.00
2172039302 272914.40 2103355.00
2172039303 272934.00 2103303.00
2172039304 272941.00 2103338.00
2172039305 272942.00 2103394.00
2172039306 272945.00 2103329.00
2172039307 272951.00 2103338.00
2172039308 272963.00 2103351.00
2172039309 272969.00 2103359.00
2172039310 272984.00 2103348.00
2172039311 272999.00 2103337.00
2172039401 272920.00 2103423.00
2172039402 272934.00 2103444.00
2172039403 272952.00 2103471.00
2172039404 272967.00 2103498.00
2172039405 272969.40 2103437.90
2172039407 272997.00 2103482.00
2172039501 272900.03 2103559.50
2172039502 272929.31 2103552.36
2172039503 272959.15 2103549.61
2172039504 272974.52 2103543.76
2172039506 272977.81 2103549.80
2172039507 272984.00 2103525.00
2172039508 272999.00 2103548.00
2172039702 272919.00 2103798.00
2172039703 272938.00 2103790.00
2172039704 272958.00 2103782.00
2172039705 272978.00 2103774.00
2172039706 272998.00 2103767.00
2172040012 272088.10 2104004.60
2172040701 272014.00 2104798.00
2172040702 272048.00 2104768.00
2172040705 272066.01 2104746.25
2172040801 272000.00 2104874.00
2172040802 272047.10 2104896.20
2172040901 272026.00 2104914.00
2172041706 272174.93 2104773.44
2172041709 272192.00 2104785.00
2172041802 272122.10 2104847.19
2172041902 272153.63 2104916.84
2172041903 272162.60 2104937.10
2172041905 272164.80 2104912.70
2172041906 272184.00 2104998.00
2172041907 272187.50 2104981.80
2172042301_ 272212.29 2104315.11
2172042302_ 272256.30 2104373.10
2172042401_ 272261.00 2104420.00
2172042402 272281.26 2104453.63
2172042403 272295.97 2104475.85
2172042603 272264.00 2104640.00
2172042604 272276.00 2104666.00
2172042605 272284.00 2104686.00
2172042701 272290.00 2104700.00
2172042702 272296.90 2104712.10
2172042802 272228.00 2104889.10
2172042901 272208.60 2104963.10
2172042902 272213.50 2104960.30
2172042903 272285.04 2104903.76
2172043301 272357.00 2104394.00
2172043401 272387.00 2104420.00
2172043401_ 272308.30 2104498.10
2172043501 272319.22 2104519.28
2172043502 272324.10 2104507.90
2172043503 272330.23 2104537.36
2172043504 272339.91 2104558.09
2172043505 272345.09 2104569.49
2172043506 272353.04 2104582.97
2172043507 272358.70 2104576.60
2172043508 272359.61 2104596.10
2172043601 272338.77 2104638.04
2172043602 272351.00 2104658.00
2172043603 272360.00 2104678.00
2172043604 272371.00 2104609.00
2172043605 272379.00 2104624.00
2172043606 272385.40 2104634.16
2172043607 272395.20 2104617.30
2172043701 272314.00 2104746.00
2172043702 272323.00 2104767.00
2172043703 272336.00 2104796.00
2172043704 272348.88 2104778.90
2172043705 272365.90 2104770.40
2172043706 272372.00 2104704.00
2172043801 272301.00 2104806.00
2172043802 272348.00 2104826.00
2172043803 272362.00 2104855.00
2172043804 272376.00 2104888.00
2172043904 272339.00 2104922.00
2172043905 272381.00 2104942.00
2172043906 272384.00 2104932.00
2172043907 272392.25 2104922.32
2172044002 272468.00 2104094.00
2172044103 272432.00 2104107.00
2172044401 272414.00 2104438.00
2172044402 272436.00 2104448.00
2172044403 272467.00 2104454.00
2172044406 272494.00 2104452.00
2172044601 272400.00 2104653.00
2172044602 272411.00 2104666.00
2172044603 272411.52 2104643.36
2172044604 272414.60 2104652.10
2172044605 272424.00 2104682.00
2172044606 272428.50 2104652.90
2172044607 272440.00 2104699.00
2172044701 272408.27 2104749.81
2172044702 272448.36 2104727.62
2172044703 272449.00 2104707.80
2172044704 272461.61 2104722.98
2172044705 272488.00 2104755.00
2172044706 272492.14 2104774.90
2172044707 272499.90 2104741.70
2172044902 272402.00 2104948.00
2172044903 272404.00 2104972.00
2172044905 272432.00 2104931.00
2172044909 272465.42 2104921.31
2172044910 272487.00 2104926.00
2172045001 272503.00 2104080.00
2172045002 272542.00 2104064.00
2172045003 272580.00 2104038.00
2172045701 272506.01 2104747.57
2172045702 272508.52 2104777.85
2172045704 272537.60 2104785.20
2172045801 272502.60 2104855.20
2172045802 272523.10 2104820.30
2172045803 272527.82 2104803.13
2172045804 272536.00 2104814.00
2172045805 272556.00 2104834.00
2172045806 272568.90 2104822.30
2172045807 272572.93 2104855.23
2172045808 272581.09 2104826.47
2172045809 272592.00 2104876.00
2172045810 272598.00 2104818.00
2172045902 272526.00 2104929.00
2172045904 272561.00 2104940.00
2172045905 272596.00 2104951.00
2172046001 272609.33 2104015.85
2172046002 272621.14 2104005.52
2172046003 272627.73 2104000.34
2172046004 272668.00 2104052.00
2172046005 272678.00 2104047.00
2172046801_ 272608.00 2104866.00
2172046802_ 272616.00 2104808.00
2172046803_ 272632.00 2104826.00
2172046804 272635.00 2104899.00
2172046805 272647.00 2104850.00
2172046806 272674.00 2104883.00
2172046901 272614.00 2104904.00
2172046902 272624.00 2104964.00
2172046903 272638.62 2104934.94
2172046904 272650.00 2104919.00
2172046905 272682.30 2104950.96
2172047001 272715.00 2104096.00
2172047101 272711.00 2104100.00
2172047102 272742.00 2104136.00
2172047103 272746.00 2104129.00
2172047104 272772.00 2104163.00
2172047202 272740.00 2104291.00
2172047204 272772.00 2104265.00
2172047403 272763.00 2104472.00
2172048101 272883.50 2104168.00
2172048201 272800.00 2104242.00
2172048202 272831.00 2104221.00
2172048203 272866.00 2104273.00
2172048304 272868.00 2104310.00
2172048305 272874.00 2104397.00
2172048306 272880.00 2104301.00
2172048307 272885.00 2104388.00
2172048401 272801.00 2104446.00
2172048403 272832.00 2104426.00
2172048405 272870.00 2104407.00
2172048407 272879.00 2104459.00
2172048408 272895.00 2104448.00
2172049003 272990.00 2104054.00
2172049301 272914.00 2104329.00
2172049302 272929.00 2104372.00
2172049303 272938.00 2104356.00
2172049304 272957.00 2104394.00
2172049401 272910.00 2104475.00
2172049402 272980.00 2104432.00
2172049403 272997.00 2104465.00
2172049502 272931.00 2104504.00
2172051102 272158.00 2105178.00
2172051103 272194.00 2105162.00
2172052101 272224.00 2105146.00
2172052102 272246.00 2105136.00
2172052103 272247.00 2105131.00
2172052104 272248.00 2105126.00
2172052105 272252.00 2105126.00
2172052106 272255.53 2105140.24
2172052107 272263.33 2105157.14
2172052108 272266.36 2105131.79
2172052109 272272.72 2105173.63
2172052110 272276.55 2105153.67
2172052111 272281.13 2105188.90
2172052112 272283.26 2105166.89
2172052114 272291.28 2105182.05
2172052201 272287.32 2105202.62
2172052202 272297.28 2105220.98
2172053201 272301.89 2105200.47
2172053203 272309.04 2105217.15
2172053204 272317.28 2105233.83
2172053503 272389.40 2105579.50
2172053602 272352.40 2105602.50
2172054407 272427.40 2105472.81
2172054409 272437.21 2105464.21
2172054410 272450.87 2105494.43
2172054501 272421.40 2105555.50
2172054502 272460.60 2105530.70
2172054503 272465.85 2105520.98
2172054504 272469.80 2105528.60
2172054506 272473.74 2105554.88
2172054508 272484.80 2105578.30
2172054511 272494.78 2105574.43
2172055003 272573.33 2105092.20
2172055101 272596.11 2105115.41
2172055602 272511.40 2105675.50
2172055701_ 272518.39 2105755.88
2172056101 272617.91 2105153.79
2172056102 272630.71 2105184.12
2172056302 272632.40 2105382.50
2172056304 272656.40 2105332.50
2172056305 272686.40 2105392.50
2172056306 272687.40 2105342.50
2172056403 272637.40 2105424.50
2172056404 272638.40 2105465.50
2172056405 272639.40 2105478.50
2172056406 272655.40 2105412.50
2172056501 272645.21 2105519.08
2172056502 272650.19 2105561.07
2172056503 272651.43 2105581.60
2172056601 272634.00 2105691.50
2172056601_ 272653.30 2105600.57
2172056602 272661.97 2105687.91
2172056602_ 272657.65 2105626.70
2172056603 272693.00 2105683.50
2172056603_ 272662.33 2105661.04
2172056701 272668.86 2105715.15
2172057001 272720.03 2105052.84
2172057002 272725.96 2105071.23
2172057003 272730.11 2105090.21
2172057004 272733.08 2105099.71
2172057005 272741.46 2105045.21
2172057101 272738.78 2105118.11
2172057103 272745.20 2105168.70
2172057105 272754.25 2105100.64
2172057301 272707.40 2105380.50
2172057302 272712.46 2105351.77
2172057305 272728.40 2105370.50
2172057306 272731.64 2105360.92
2172057307 272752.40 2105356.50
2172057309 272780.54 2105395.17
2172057401 272717.40 2105424.50
2172057402 272729.19 2105450.96
2172057403 272731.40 2105474.50
2172057404 272733.24 2105493.58
2172057406 272796.40 2105402.50
2172057501 272737.40 2105532.50
2172057502 272738.40 2105547.50
2172057601 272701.00 2105681.50
2172057601_ 272748.85 2105623.72
2172057602 272748.85 2105633.78
2172057603 272752.31 2105663.33
2172058102 272831.50 2105146.60
2172058401 272805.40 2105439.50
2172058402 272810.40 2105472.50
2172058403 272815.40 2105490.50
2172058501 272818.40 2105509.50
2172058502 272828.40 2105544.50
2172058503 272841.16 2105598.22
2172058602 272841.40 2105605.50
2172058603 272842.40 2105612.50
2172058604 272845.40 2105631.50
2172058605 272853.40 2105662.50
2172058606 272864.30 2105611.40
2172058607 272872.30 2105646.37
2172058608 272891.40 2105604.30
2172059301 272916.44 2105363.41
2172059302 272954.80 2105356.60
2172059303 272978.94 2105352.89
2172059402 272933.15 2105402.39
2172059404 272943.05 2105429.62
2172059405 272952.95 2105463.65
2172059406 272964.71 2105493.36
2172059501 272964.00 2105519.00
2172059502 272975.00 2105547.00
2172059503 272979.00 2105566.00
2172059504 272986.00 2105590.00
2172059602 272949.00 2105687.00
2172059604 272994.00 2105623.00
2172059703 272958.00 2105714.00
2173030102 273018.00 2103167.00
2173030105 273042.00 2103148.00
2173030301 273009.00 2103304.00
2173030302 273026.00 2103332.00
2173030303 273040.00 2103352.00
2173030304 273050.00 2103371.00
2173030403 273065.00 2103497.00
2173030405 273086.00 2103484.00
2173030501 273008.00 2103561.00
2173030502 273019.00 2103551.00
2173030503 273022.00 2103581.00
2173030504 273024.00 2103522.00
2173030505 273040.69 2103551.37
2173030506 273049.00 2103566.00
2173030507 273081.00 2103527.00
2173030601 273034.00 2103601.00
2173030602 273047.00 2103617.00
2173030603 273061.00 2103639.00
2173030604 273070.00 2103654.00
2173030605 273072.00 2103600.50
2173030606 273076.00 2103610.00
2173030607 273085.00 2103673.00
2173030608 273098.00 2103694.00
2173030701 273019.00 2103759.00
2173030702 273036.00 2103712.00
2173030703 273046.00 2103750.00
2173030704 273051.00 2103738.00
2173030705 273061.00 2103753.00
2173030706 273084.00 2103790.00
2173030801 273093.00 2103805.00
2173030901 273068.00 2103976.00
2173030902 273084.00 2103962.00
2173031302 273118.00 2103342.00
2173031304 273131.00 2103347.00
2173031305 273137.00 2103329.00
2173031306 273145.00 2103375.00
2173031307 273162.00 2103399.00
2173031308 273164.00 2103316.00
2173031401 273101.00 2103475.00
2173031402 273112.00 2103467.00
2173031403 273131.00 2103495.00
2173031404 273182.00 2103431.00
2173031501 273107.00 2103514.00
2173031505 273146.00 2103523.00
2173031601 273103.00 2103654.00
2173031701 273103.00 2103702.00
2173031702 273123.00 2103735.00
2173031703 273132.00 2103701.00
2173031704 273135.00 2103707.00
2173031705 273137.00 2103756.00
2173031706 273156.00 2103787.00
2173031707 273162.00 2103750.00
2173031708 273189.00 2103794.00
2173031801 273128.00 2103863.00
2173031802 273141.00 2103888.00
2173031803 273166.00 2103887.00
2173031804 273170.00 2103811.00
2173031805 273184.00 2103833.00
2173031806 273187.00 2103868.00
2173031807 273197.00 2103855.00
2173031901 273104.00 2103943.00
2173031902 273128.00 2103923.00
2173031903 273145.00 2103906.00
2173032201 273203.00 2103296.00
2173032202 273253.00 2103272.00
2173032205 273283.00 2103262.00
2173032206 273290.00 2103277.00
2173032207 273297.00 2103256.00
2173032401 273224.00 2103489.00
2173032501 273224.00 2103508.00
2173032801_ 273215.10 2103826.20
2173033201 273324.00 2103247.00
2173033202 273347.00 2103237.00
2173033204 273364.00 2103228.00
2173033207 273383.00 2103220.00
2173033301 273302.00 2103308.00
2173033302 273316.00 2103347.00
2173033303 273328.00 2103375.00
2173033402 273340.00 2103405.00
2173033404 273376.00 2103460.00
2173033501 273394.00 2103501.00
2173033601 273322.00 2103638.00
2173033602 273334.00 2103658.00
2173033603 273344.00 2103677.00
2173033604 273354.00 2103627.00
2173033605 273394.00 2103611.00
2173034201 273418.00 2103204.00
2173034202 273440.00 2103230.00
2173034203 273452.00 2103256.00
2173034204 273460.00 2103276.00
2173034205 273469.00 2103299.00
2173034302 273484.00 2103325.00
2173034303 273494.00 2103352.00
2173034501 273408.00 2103537.00
2173034502 273420.00 2103570.00
2173034503 273430.00 2103595.00
2173035301 273504.00 2103386.00
2173035401 273514.00 2103412.00
2173035401_ 273563.00 2103499.00
2173035402 273527.00 2103445.00
2173035501 273577.00 2103529.00
2173035502 273587.00 2103557.00
2173036501 273601.00 2103587.00
2173036502 273645.00 2103598.00
2173036503 273674.00 2103589.00
2173036601 273608.00 2103620.00
2173036601_ 273628.00 2103602.00
2173036602 273612.00 2103626.00
2173036603 273626.00 2103648.00
2173036604 273641.00 2103674.00
2173036701 273658.00 2103700.00
2173036702 273673.00 2103725.00
2173036703 273691.00 2103752.00
2173037501 273703.00 2103582.00
2173037801 273764.00 2103834.00
2173037802 273787.00 2103862.00
2173037901 273764.00 2103974.00
2173038801 273809.00 2103887.00
2173038901 273801.00 2103954.00
2173038902 273830.00 2103911.00
2173038903 273834.00 2103930.00
2173038904 273866.00 2103942.00
2173038905 273896.00 2103972.00
2173039901 273919.00 2103992.00
2173040001 273015.00 2104032.00
2173040002 273039.00 2104008.00
2173040101 273068.00 2104153.00
2173040102 273084.00 2104180.00
2173040501 273016.00 2104502.00
2173041101 273104.00 2104140.00
2173041102 273132.00 2104131.00
2173041103 273151.00 2104162.00
2173041104 273175.00 2104198.00
2173041105 273182.00 2104112.00
2173041201 273104.00 2104209.00
2173041202 273131.30 2104252.53
2173041203 273152.10 2104278.10
2173041401 273161.27 2104480.24
2173041501 273126.00 2104502.00
2173041502 273152.00 2104568.20
2173041601 273181.20 2104635.10
2173042001 273241.00 2104082.00
2173042101 273209.00 2104146.00
2173042201 273200.33 2104238.25
2173042202 273251.50 2104204.93
2173042302 273276.00 2104378.00
2173042401 273216.00 2104441.00
2173042402 273236.00 2104404.00
2173042403 273246.00 2104422.00
2173042404 273265.00 2104446.00
2173042406 273292.00 2104428.00
2173042407 273296.00 2104492.00
2173042601 273204.90 2104693.80
2173042701 273230.00 2104752.00
2173042801 273256.80 2104815.60
2173042802 273279.60 2104870.80
2173043001 273304.00 2104043.00
2173043003 273354.00 2104049.00
2173043005 273388.00 2104098.00
2173043202 273360.00 2104252.00
2173043203 273394.00 2104294.00
2173043301 273315.00 2104351.00
2173043302 273345.00 2104390.00
2173043303 273356.00 2104321.00
2173043304 273362.00 2104374.00
2173043305 273391.00 2104354.00
2173043401 273321.00 2104406.00
2173043402 273322.00 2104472.00
2173043403 273350.00 2104450.00
2173043404 273374.00 2104432.00
2173043405 273394.00 2104486.00
2173043406 273398.00 2104414.00
2173043502 273330.00 2104534.00
2173043504 273364.00 2104508.00
2173043505 273386.00 2104576.00
2173043506 273394.00 2104566.00
2173043601 273370.00 2104662.00
2173043901 273303.60 2104928.80
2173043902 273324.00 2104977.00
2173044101 273402.00 2104118.00
2173044102 273427.00 2104151.00
2173044103 273436.00 2104198.00
2173044106 273487.00 2104166.00
2173044201 273403.00 2104218.00
2173044202 273456.00 2104284.00
2173044203 273492.80 2104247.30
2173044204 273499.60 2104259.47
2173044301 273410.00 2104319.00
2173044302 273416.00 2104330.00
2173044303 273428.00 2104341.00
2173044304 273429.42 2104389.98
2173044305 273450.24 2104375.70
2173044306 273466.00 2104394.00
2173044401 273410.37 2104404.86
2173044402 273426.00 2104462.00
2173044403 273452.00 2104444.00
2173044404 273478.00 2104428.00
2173044405 273479.00 2104412.00
2173044406 273488.00 2104496.00
2173044502 273421.00 2104545.00
2173044504 273445.00 2104530.00
2173044505 273453.00 2104598.00
2173044506 273464.00 2104514.00
2173044507 273484.00 2104574.00
2173044601 273415.00 2104626.00
2173044602 273440.00 2104609.00
2173045101 273504.35 2104194.41
2173045102 273523.00 2104140.00
2173045103 273538.00 2104131.00
2173045104 273553.00 2104122.00
2173045105 273565.00 2104117.00
2173045201 273502.99 2104243.88
2173045202 273511.80 2104237.80
2173045203 273513.16 2104277.77
2173045204 273521.97 2104228.97
2173045205 273526.71 2104298.10
2173045210 273561.30 2104279.80
2173045301 273541.62 2104319.11
2173045302 273555.85 2104336.05
2173045303 273568.05 2104353.00
2173045304 273576.19 2104365.20
2173045305 273586.35 2104379.43
2173045306 273596.52 2104392.99
2173045401 273503.00 2104442.00
2173045402 273514.00 2104476.00
2173045501 273510.00 2104558.00
2173045502 273536.00 2104539.00
2173045503 273564.00 2104520.00
2173045504 273569.00 2104530.00
2173045505 273586.00 2104552.00
2173045601 273530.00 2104677.00
2173045603 273554.00 2104666.00
2173045604 273577.00 2104648.00
2173045901 273552.00 2104996.00
2173046003 273682.00 2104033.00
2173046102 273623.00 2104150.00
2173046104 273656.00 2104124.00
2173046106 273679.00 2104108.00
2173046202 273664.50 2104250.50
2173046203 273682.02 2104276.76
2173046301 273609.40 2104345.50
2173046401 273600.00 2104494.00
2173046402 273607.36 2104409.25
2173046403 273615.50 2104420.10
2173046404 273624.31 2104431.62
2173046405 273635.83 2104449.24
2173046406 273636.00 2104468.00
2173046409 273654.00 2104456.00
2173046410 273661.60 2104417.40
2173046412 273676.00 2104490.00
2173046413 273680.00 2104440.00
2173046414 273694.00 2104461.00
2173046501 273606.00 2104579.00
2173046601 273602.00 2104629.00
2173046602 273626.00 2104610.00
2173046603 273657.00 2104648.00
2173046704 273645.00 2104797.00
2173046707 273666.00 2104786.00
2173046709 273698.00 2104764.00
2173046901 273603.00 2104968.00
2173046902 273649.00 2104994.00
2173047001 273710.00 2104084.00
2173047002 273723.00 2104004.00
2173047003 273746.00 2104062.00
2173047004 273776.00 2104040.00
2173047005 273796.00 2104026.00
2173047101 273715.00 2104129.00
2173047102 273741.00 2104149.00
2173047103 273772.00 2104192.00
2173047104 273777.00 2104125.00
2173047105 273792.00 2104176.00
2173047202 273737.00 2104218.00
2173047204 273795.00 2104256.00
2173047301 273703.01 2104304.75
2173047302 273741.49 2104356.64
2173047402 273710.00 2104487.00
2173047501 273700.00 2104524.00
2173047502 273722.00 2104555.00
2173047503 273734.00 2104522.00
2173047504 273746.00 2104588.00
2173047505 273756.00 2104555.00
2173047506 273772.00 2104576.00
2173047601 273763.00 2104680.00
2173047602 273768.00 2104623.00
2173047603 273793.00 2104658.00
2173047604 273794.00 2104606.00
2173047701 273706.00 2104718.00
2173047702 273722.00 2104740.00
2173047703 273734.00 2104701.00
2173047704 273742.00 2104766.00
2173047801 273740.00 2104822.00
2173047802 273749.00 2104854.00
2173047803 273758.00 2104894.00
2173047804 273766.00 2104800.00
2173047805 273796.00 2104840.00
2173047902 273768.00 2104931.00
2173047903 273778.00 2104968.00
2173047904 273784.00 2104995.00
2173048001 273800.64 2104044.74
2173048002 273812.56 2104063.18
2173048003 273826.00 2104004.00
2173048004 273827.00 2104085.00
2173048005 273854.00 2104033.00
2173048006 273866.00 2104046.00
2173048007 273881.00 2104072.00
2173048008 273895.00 2104088.00
2173048101 273804.00 2104105.00
2173048102 273816.00 2104160.00
2173048103 273844.00 2104138.00
2173048104 273866.00 2104122.00
2173048106 273894.00 2104100.00
2173048201 273827.00 2104276.00
2173048204 273880.00 2104295.00
2173048301 273802.00 2104350.00
2173048303 273828.00 2104366.00
2173048305 273856.00 2104385.00
2173048403 273890.00 2104405.00
2173048503 273882.00 2104594.00
2173048601 273817.00 2104642.00
2173048602 273818.00 2104698.00
2173048603 273842.00 2104672.00
2173048604 273850.00 2104617.00
2173048701 273838.00 2104714.00
2173048702 273860.00 2104700.00
2173048703 273864.00 2104746.00
2173048704 273880.00 2104722.00
2173048705 273889.00 2104778.00
2173048801 273822.00 2104871.00
2173048802 273844.00 2104899.00
2173048803 273892.60 2104897.00
2173048901 273809.00 2104973.00
2173048902 273839.00 2104945.00
2173048903 273863.60 2104924.00
2173048904 273882.00 2104942.00
2173049001 273949.00 2104022.00
2173049002 273974.00 2104042.00
2173049201 273908.00 2104275.00
2173049202 273931.00 2104258.00
2173049203 273958.00 2104240.00
2173049204 273964.00 2104278.00
2173049205 273984.00 2104218.00
2173049206 273996.00 2104294.00
2173049207 273998.00 2104252.00
2173049301 273909.00 2104312.00
2173049302 273930.00 2104331.00
2173049303 273966.00 2104350.00
2173049304 273990.00 2104367.00
2173049401 273918.00 2104421.00
2173049402 273949.00 2104440.00
2173049403 273980.00 2104462.00
2173049404 273986.00 2104446.00
2173049405 273993.00 2104420.00
2173049501 273918.00 2104594.00
2173049504 273998.00 2104507.00
2173049601 273944.00 2104631.00
2173049602 273964.00 2104656.00
2173049603 273980.00 2104680.00
2173049701 273900.00 2104752.00
2173049702 273922.00 2104778.00
2173049801 273908.00 2104800.00
2173049802 273918.60 2104872.00
2173049803 273926.00 2104823.00
2173049804 273945.60 2104846.00
2173049805 273948.00 2104806.00
2173049806 273950.60 2104854.00
2173049807 273966.00 2104876.00
2173049808 273967.60 2104825.00
2173049901 273912.00 2104972.00
2173049902 273936.00 2104949.00
2173049903 273941.00 2104999.00
2173049904 273964.00 2104922.00
2173049905 273990.00 2104904.00
2173050301 273058.00 2105354.00
2173050301_ 273009.88 2105346.70
2173050302 273075.00 2105382.00
2173050401 273089.00 2105412.00
2173050601 273006.00 2105657.00
2173050602 273016.00 2105672.00
2173051401 273106.00 2105447.00
2173051402 273122.00 2105480.00
2173051501 273148.00 2105501.00
2173051502 273170.00 2105520.00
2173052501 273200.00 2105542.00
2173052502 273218.00 2105562.00
2173052603 273252.00 2105611.00
2173053001 273339.20 2105009.90
2173053002 273358.80 2105058.60
2173053101 273385.00 2105122.00
2173053201 273314.30 2105220.00
2173053202 273326.00 2105255.70
2173053203 273334.60 2105288.20
2173053301 273359.60 2105369.10
2173053401 273370.20 2105404.80
2173053402 273382.50 2105450.10
2173053403 273396.30 2105490.50
2173054101 273401.90 2105172.20
2173054201 273423.00 2105231.00
2173054202 273444.00 2105293.90
2173054301 273468.30 2105367.60
2173054401 273483.30 2105417.00
2173054505 273422.00 2105592.00
2173054506 273419.50 2105563.30
2173054507 273477.00 2105593.00
2173054508 273427.90 2105575.50
2173054509 273431.00 2105597.00
2173054510 273433.40 2105590.00
2173054511 273435.70 2105597.20
2173054512 273409.00 2105530.20
2173054513 273419.00 2105599.80
2173054601 273419.80 2105606.70
2173054602 273424.70 2105621.80
2173054603 273429.00 2105620.70
2173054604 273433.20 2105619.50
2173054605 273436.90 2105619.00
2173054606 273437.90 2105608.90
2173054607 273441.40 2105618.20
2173054608 273448.20 2105653.00
2173054609 273450.42 2105673.21
2173054610 273455.30 2105683.00
2173054611 273449.00 2105600.00
2173054701 273460.99 2105728.83
2173054702 273463.60 2105722.40
2173055401 273505.90 2105480.70
2173055503 273516.99 2105591.69
2173055505 273520.00 2105531.00
2173055506 273531.60 2105573.40
2173055507 273532.50 2105578.90
2173055601 273537.30 2105618.00
2173055602 273545.00 2105642.00
2173055603 273547.59 2105659.89
2173055604 273554.22 2105685.97
2173055605 273564.01 2105613.76
2173055606 273582.57 2105639.38
2173055701 273560.17 2105716.87
2173056601 273601.14 2105664.44
2173056602 273619.93 2105690.17
2173056701 273636.21 2105712.95
2173057001 273704.00 2105016.86
2173057003 273716.00 2105054.00
2173057005 273752.00 2105021.00
2173057105 273787.00 2105187.00
2173058001 273803.32 2105013.80
2173058003 273825.40 2105036.00
2173058004 273833.00 2105048.00
2173058005 273854.00 2105027.00
2173058007 273873.00 2105011.00
2173058101 273823.00 2105154.00
2173058102 273854.00 2105124.00
2173058103 273862.00 2105151.00
2173058104 273882.00 2105100.00
2173058106 273893.00 2105177.00
2173058202 273823.00 2105243.00
2173058203 273829.00 2105238.00
2173058205 273857.00 2105212.00
2173058206 273870.00 2105286.00
2173058301 273849.00 2105386.00
2173058302 273860.00 2105309.00
2173058303 273862.00 2105372.00
2173058304 273872.00 2105327.00
2173058305 273877.00 2105338.00
2173058306 273886.00 2105354.00
2173058308 273896.00 2105370.00
2173058401 273870.00 2105424.00
2173058402 273890.50 2105457.00
2173059001 273908.00 2105076.00
2173059002 273932.39 2105077.66
2173059003 273933.00 2105050.00
2173059004 273940.00 2105086.00
2173059005 273961.00 2105020.00
2173059006 273979.00 2105096.00
2173059007 273985.00 2105046.00
2173059101 273926.00 2105148.00
2173059103 273951.00 2105125.00
2173059104 273967.00 2105192.00
2173059105 273986.00 2105174.00
2173059201 273902.00 2105257.00
2173059202 273939.00 2105224.00
2173059204 273991.00 2105233.00
2173059301 273912.00 2105392.00
2173059401 273904.50 2105472.00
2173059402 273916.50 2105494.00
2173059403 273920.00 2105410.00
2173059404 273928.00 2105410.00
2173059405 273939.00 2105438.00
2173059406 273961.00 2105449.00
2173059407 273984.00 2105462.00
2173059408 273986.00 2105475.00
2173059501 273929.50 2105512.00
2173059502 273949.50 2105536.00
2173059503 273963.50 2105558.00
2173059504 273975.50 2105576.00
2173059505 273989.00 2105594.00
2173059601 273999.36 2105608.15
2174030104 274096.00 2103176.00
2174031101 274101.50 2103142.40
2174031203 274119.70 2103260.30
2174031306 274134.60 2103387.70
2174031405 274142.00 2103459.40
2174031409 274150.00 2103471.00
2174031701 274127.00 2103728.00
2174031704 274166.00 2103705.00
2174032201 274259.00 2103296.00
2174032202 274263.42 2103295.11
2174032203 274264.20 2103299.80
2174032303 274261.00 2103309.60
2174032304 274263.00 2103320.00
2174032305 274263.70 2103309.20
2174032306 274275.00 2103318.00
2174032307 274291.00 2103313.50
2174032601 274200.00 2103688.00
2174032603 274222.00 2103681.00
2174033201 274305.80 2103285.50
2174033202 274306.20 2103290.10
2174033203 274345.90 2103276.60
2174033204 274346.30 2103279.80
2174033205 274354.00 2103298.00
2174033206 274367.90 2103271.40
2174033207 274368.30 2103275.00
2174033301 274300.00 2103312.00
2174033302 274304.00 2103311.00
2174033304 274321.00 2103307.00
2174033306 274334.00 2103304.50
2174033308 274354.00 2103300.00
2174033309 274370.00 2103301.00
2174033310 274373.00 2103305.00
2174034201 274411.00 2103297.00
2174034202 274417.10 2103262.00
2174034203 274417.40 2103264.90
2174034301 274413.00 2103300.00
2174040001 274000.00 2104064.00
2174040003 274020.00 2104092.00
2174040102 274014.00 2104198.00
2174040103 274032.00 2104120.00
2174040104 274040.00 2104162.00
2174040105 274044.00 2104178.00
2174040106 274050.00 2104105.00
2174040107 274074.00 2104122.00
2174040201 274044.00 2104205.00
2174040202 274056.00 2104222.00
2174040203 274063.00 2104254.00
2174040204 274072.00 2104294.00
2174040301 274014.00 2104382.00
2174040302 274048.00 2104358.00
2174040303 274079.00 2104333.00
2174040401 274020.00 2104492.00
2174040402 274050.00 2104404.00
2174040403 274052.00 2104468.00
2174040404 274070.00 2104456.00
2174040405 274083.76 2104422.94
2174040502 274043.00 2104572.00
2174040601 274049.00 2104606.00
2174040602 274055.00 2104639.00
2174040603 274064.00 2104678.00
2174040701 274000.00 2104704.00
2174040702 274022.00 2104733.00
2174040703 274052.00 2104764.00
2174040704 274071.00 2104713.00
2174040705 274075.00 2104790.00
2174040706 274079.00 2104744.00
2174040901 274008.00 2104927.00
2174040902 274023.22 2104943.63
2174040903 274029.86 2104901.37
2174040904 274038.05 2104959.32
2174040905 274043.24 2104914.36
2174040906 274060.15 2104934.42
2174040907 274070.00 2104988.00
2174040908 274081.00 2104958.00
2174041101 274100.00 2104146.00
2174041102 274110.00 2104182.00
2174041103 274130.00 2104160.00
2174041104 274160.00 2104176.00
2174041105 274194.00 2104196.00
2174041201 274114.00 2104208.00
2174041202 274122.00 2104236.00
2174041203 274126.00 2104256.00
2174041204 274138.00 2104222.00
2174041205 274140.00 2104296.00
2174041206 274152.00 2104286.00
2174041207 274162.00 2104236.00
2174041208 274186.00 2104262.00
2174041301 274114.00 2104331.00
2174041302 274149.00 2104330.00
2174041303 274164.00 2104388.00
2174041304 274170.00 2104336.00
2174041305 274190.00 2104369.00
2174041401 274106.86 2104408.63
2174041402 274110.00 2104467.00
2174041403 274130.70 2104410.84
2174041404 274179.25 2104497.80
2174041405 274195.11 2104475.84
2174041501 274116.00 2104502.00
2174041502 274122.00 2104533.00
2174041503 274130.00 2104562.00
2174041504 274144.00 2104521.00
2174041601 274138.00 2104602.00
2174041602 274144.00 2104636.00
2174041603 274153.00 2104675.00
2174041704 274171.90 2104773.50
2174041705 274182.00 2104790.00
2174041801 274107.00 2104830.00
2174041803 274129.00 2104808.00
2174041806 274188.00 2104831.00
2174041807 274198.00 2104872.00
2174041901 274104.00 2104987.00
2174042201 274210.00 2104248.00
2174042202 274244.00 2104228.00
2174042203 274269.60 2104244.79
2174042204 274294.00 2104294.00
2174042301 274224.00 2104344.00
2174042302 274255.00 2104324.00
2174042303 274276.00 2104306.00
2174042401 274204.05 2104461.20
2174042402 274218.00 2104430.00
2174042403 274234.00 2104469.00
2174042404 274240.00 2104494.00
2174042501 274247.00 2104525.00
2174042502 274264.00 2104592.00
2174042604 274272.00 2104628.00
2174042605 274282.00 2104674.00
2174042704 274296.00 2104724.00
2174042901 274200.00 2104923.00
2174042902 274209.00 2104922.00
2174042903 274216.00 2104953.00
2174042904 274222.00 2104983.00
2174042905 274255.00 2104981.00
2174042906 274273.80 2104913.20
2174042907 274286.77 2104912.00
2174043203 274384.00 2104235.00
2174043204 274396.00 2104228.00
2174043301 274323.00 2104302.00
2174043302 274338.00 2104346.00
2174043303 274351.00 2104388.00
2174043401 274356.00 2104420.00
2174043402 274364.00 2104462.00
2174043403 274369.00 2104491.00
2174043501 274373.00 2104514.00
2174043502 274379.00 2104542.00
2174043701 274304.00 2104764.00
2174043801 274314.00 2104807.00
2174043802 274321.00 2104842.00
2174043803 274327.00 2104871.00
2174043901 274308.01 2104911.21
2174043902 274335.00 2104902.00
2174043903 274335.10 2104911.46
2174043904 274342.23 2104912.88
2174043905 274369.00 2104918.00
2174050001 274005.00 2105071.00
2174050002 274023.00 2105089.00
2174050003 274095.00 2105073.00
2174050004 274096.00 2105018.00
2174050101 274020.00 2105142.00
2174050102 274048.00 2105119.00
2174050103 274056.00 2105111.00
2174050104 274066.00 2105181.00
2174050105 274077.00 2105133.00
2174050106 274093.00 2105152.00
2174050201 274000.00 2105280.00
2174050202 274025.00 2105223.00
2174050203 274038.00 2105206.00
2174050204 274040.00 2105264.00
2174050205 274076.00 2105250.00
2174050302 274042.00 2105347.00
2174050304 274068.00 2105331.00
2174050305 274099.00 2105393.00
2174050401 274010.00 2105492.00
2174050402 274078.00 2105422.00
2174050403 274086.00 2105438.00
2174050405 274094.00 2105428.00
2174050501 274004.00 2105502.00
2174050502 274005.00 2105598.00
2174050503 274019.00 2105590.00
2174050504 274020.00 2105504.00
2174050505 274026.70 2105588.40
2174050506 274030.00 2105518.00
2174050507 274043.35 2105576.61
2174050508 274049.00 2105542.00
2174050509 274061.00 2105569.00
2174050510 274073.00 2105564.00
2174050511 274095.00 2105556.00
2174050601 274008.00 2105624.00
2174050602 274026.00 2105653.00
2174050603 274043.00 2105680.00
2174050604 274049.00 2105684.00
2174050605 274052.00 2105627.00
2174050606 274075.00 2105664.00
2174050607 274087.00 2105612.00
2174050608 274089.00 2105688.00
2174050701 274011.00 2105718.00
2174050702 274025.00 2105701.00
2174051001 274122.00 2105045.00
2174051002 274136.00 2105018.00
2174051003 274146.00 2105071.00
2174051004 274162.00 2105050.00
2174051005 274190.00 2105078.00
2174051101 274121.00 2105184.00
2174051102 274176.00 2105101.00
2174051201 274116.00 2105234.00
2174051202 274143.00 2105226.00
2174051203 274188.00 2105210.00
2174051301 274114.00 2105312.00
2174051302 274123.00 2105367.00
2174051303 274144.00 2105338.00
2174051304 274169.00 2105305.00
2174051402 274122.00 2105436.00
2174051403 274166.00 2105445.00
2174051601 274109.00 2105600.00
2174051602 274111.00 2105648.00
2174051603 274141.00 2105632.00
2174051604 274168.00 2105623.00
2174051701 274105.00 2105707.00
2174052001 274230.00 2105019.00
2174052002 274236.00 2105043.00
2174052003 274242.00 2105073.00
2174052004 274276.00 2105045.00
2174052101 274214.00 2105104.00
2174052101_ 274296.63 2105116.47
2174052102 274250.00 2105109.00
2174052103 274282.00 2105115.00
2174052201 274201.00 2105266.00
2174052202 274202.57 2105204.31
2174052203 274219.00 2105241.00
2174052204 274255.00 2105270.00
2174052205 274259.00 2105251.00
2174052301 274235.00 2105383.00
2174052302 274241.00 2105338.00
2174052303 274247.00 2105310.00
2174052402 274221.00 2105453.00
2174052403 274225.00 2105437.00
2174052404 274229.00 2105413.00
2174052405 274239.00 2105447.00
2174052406 274245.00 2105424.00
2174052407 274277.00 2105403.00
2174052408 274281.00 2105453.00
2174052501_ 274245.99 2105569.28
2174052502 274211.00 2105511.00
2174052502_ 274281.04 2105574.20
2174052503 274225.00 2105503.00
2174052504 274255.00 2105509.00
2174052505 274295.00 2105515.00
2174052601 274241.00 2105665.00
2174052601_ 274294.88 2105633.05
2174052602 274251.00 2105623.00
2174052703 274236.00 2105702.00
2174053001 274302.00 2105049.00
2174053001_ 274332.86 2105059.45
2174053002 274323.00 2105058.00
2174053002_ 274373.55 2105088.16
2174053101 274323.91 2105130.17
2174053102 274350.41 2105107.32
2174053201 274321.93 2105236.11
2174053202 274326.17 2105215.75
2174053203 274334.20 2105204.70
2174053204 274340.74 2105256.27
2174053205 274348.27 2105236.32
2174053206 274367.13 2105290.57
2174053207 274370.46 2105260.66
2174053208 274393.18 2105287.71
2174053301 274305.00 2105384.00
2174053301_ 274386.53 2105314.42
2174053302 274331.00 2105363.00
2174053303 274332.80 2105390.30
2174053304 274359.00 2105346.00
2174053401 274315.00 2105459.00
2174053401_ 274334.59 2105401.31
2174053402 274340.90 2105430.90
2174053402_ 274342.95 2105443.82
2174053403 274346.70 2105460.20
2174053403_ 274350.36 2105472.33
2174053501 274326.00 2105522.00
2174053501_ 274317.41 2105579.77
2174053502 274350.56 2105584.48
2174053503 274357.35 2105503.01
2174053504 274365.41 2105536.68
2174053505 274377.81 2105581.95
2174053506 274382.96 2105595.58
2174053507 274387.70 2105587.70
2174053601 274327.82 2105637.95
2174053602 274342.97 2105699.44
2174053603 274355.72 2105642.13
2174053604 274363.58 2105666.36
2174053605 274379.05 2105640.69
2174053606 274382.14 2105628.71
2174054001 274413.09 2105062.91
2174054301 274408.55 2105342.55
2171049803_OUT 271975.00 2104829.00
2172038505_OUT 272856.67 2103534.77
2172038509_OUT 272863.00 2103565.00
2172039202_OUT 272948.00 2103212.00
2172039304_OUT 272942.00 2103339.00
2172043605_OUT 272380.00 2104625.00
2172043606_OUT 272386.40 2104635.16
2172043905_OUT 272382.00 2104943.00
2172044706_OUT 272493.14 2104775.90
2172045701_OUT 272507.01 2104748.57
2172052105_OUT 272253.00 2105127.00
2172056405_OUT 272640.40 2105479.50
2172057101_OUT 272739.78 2105119.11
2172057309_OUT 272781.54 2105396.17
2172059301_OUT 272917.44 2105364.41
2173031302_OUT 273119.00 2103343.00
2173031402_OUT 273113.00 2103468.00
2173033601_OUT 273323.00 2103639.00
2173035301_OUT 273505.00 2103387.00
2173047701_OUT 273707.00 2104719.00
2173048204_OUT 273881.00 2104296.00
2173059104_OUT 273968.00 2105193.00
2174041502_OUT 274123.00 2104534.00
2174041801_OUT 274108.00 2104831.00
2174042901_OUT 274201.00 2104924.00
2174052402_OUT 274222.00 2105454.00
2174053507_OUT 274388.70 2105588.70

